%%MatrixMarket matrix array real general
11500 1
3.93460914122232e-01
4.86973140711622e-02
9.83611824126012e-01
7.48734538608577e-01
1.33693685793936e-01
9.45874398880483e-01
5.02378029384508e-01
3.78695887904898e-01
4.95925749462534e-01
8.52904894969148e-01
5.38797582181191e-01
8.15048941412438e-01
5.32538477412133e-01
2.21258238799432e-01
9.59427067809439e-01
6.04947583764081e-02
6.71027978223670e-01
6.30427784421774e-01
6.64191561251228e-02
3.05503417379048e-01
5.80150600381574e-02
3.10266895704589e-01
1.79135575010430e-01
6.94073852360873e-01
8.14747453707918e-01
4.14308591594473e-02
2.64132272307127e-03
7.34662294181929e-01
3.14053756392733e-01
5.70132043764895e-01
5.50046248601667e-01
4.10253237884576e-01
1.42712615350962e-01
4.76803073414080e-01
1.18318673438489e-01
8.59154955170907e-01
1.56638492133019e-01
9.19484615066714e-02
8.46274135055043e-01
9.32857305795751e-01
7.23654217664910e-02
2.59749993822704e-01
7.67830718427934e-01
4.03052556986702e-01
8.90050612984943e-01
1.96533347519112e-01
6.61488992280334e-01
7.26692727650144e-01
1.49984020180677e-01
1.01745667482322e-01
6.19035162371892e-01
2.39408196776302e-01
5.21445295347350e-01
6.41219229904665e-01
9.62831665090288e-01
4.37537893369993e-01
2.24378657693679e-01
7.68555724682027e-01
1.78053604095770e-01
2.79882689330704e-01
2.82061953491796e-01
9.26588757360491e-01
8.84856037178531e-01
8.80181525840245e-01
1.38102673554330e-02
2.66966277587742e-01
4.07162391462417e-01
4.60066277229394e-01
8.79186632702663e-01
7.53738606022405e-01
1.08238121331341e-01
4.13620929332307e-01
2.61326489362570e-01
7.86245092600819e-01
9.70871203890654e-01
6.74415748918644e-01
8.06986690145092e-01
6.62922670106671e-02
9.92373592965281e-02
5.09295025749063e-01
1.98056338347751e-01
9.25530621387105e-01
1.45634708007511e-01
3.50465093343725e-01
7.63326919127003e-01
9.24982156470669e-01
2.79840525122226e-01
8.66799909462097e-01
4.45500487526455e-01
7.48533738456470e-01
9.94192657806546e-01
5.13772096668894e-01
9.39362331859066e-01
4.52544448930729e-01
2.43796305415200e-02
2.27363292373952e-01
6.46751270111211e-02
2.78893661068473e-01
2.98083493584470e-01
9.00107684940405e-01
2.63232701171547e-02
9.80364780269782e-01
8.52748033169192e-01
2.04558270787801e-01
6.57874439341987e-01
3.55633091604825e-01
4.09317601820455e-01
4.38607117951012e-01
7.39356889262097e-01
6.99163020442706e-01
2.58235323766712e-02
2.01504151384839e-01
3.27680246918986e-01
9.75768809881129e-01
4.99593480705640e-01
5.75818840104653e-02
2.79157221889064e-01
8.48829475461854e-01
3.40610291055040e-01
5.55985837454168e-01
9.13059370858891e-01
3.43421567783613e-01
6.18614529520314e-01
2.35391309968817e-01
2.51697406295531e-01
9.31015780337252e-01
2.43438835317103e-01
3.69711738473565e-01
2.20947037517841e-01
4.93655438107429e-01
7.54358164912219e-01
1.59128312569648e-01
5.73913782699162e-01
6.18864585816040e-01
3.35245846204512e-01
7.46162464288046e-01
5.44048986078546e-01
4.60373923113796e-01
1.89281345619962e-02
9.70400290706740e-02
1.90992012834262e-01
2.37197346779887e-01
6.99227308127992e-01
1.59018807300052e-02
3.71653098484901e-01
4.89490382088390e-01
2.99329281593954e-01
5.31803850998999e-01
5.50956129148311e-01
4.52562172036475e-01
1.45233936570601e-01
7.03046512161287e-01
1.95799034058473e-02
4.55532137664969e-01
9.07612656265958e-01
9.44004007349020e-01
4.26213695070135e-01
2.10869111813064e-01
8.29821545031040e-03
8.67047040955304e-03
2.99030062323172e-01
3.48196210266201e-01
1.25455407414097e-01
2.85604414781734e-01
6.93111526081178e-01
5.63967714406830e-01
5.75843347687488e-01
4.98621380438887e-01
4.78063599107086e-01
7.11155333177247e-01
5.34937542013317e-01
3.58923627605603e-01
6.15909364401533e-01
7.58565077070498e-01
6.66587194584069e-01
7.72123072959835e-01
5.82115487917467e-01
6.80649145069819e-01
8.14966388920774e-01
1.52379735795356e-01
9.35926708815077e-01
6.39264183195289e-01
7.43647009397392e-02
7.55046677153789e-01
8.33353724331743e-01
4.00933450505743e-01
1.95984000117275e-01
1.23521546248412e-01
5.31121682681926e-02
8.98732796923759e-01
4.43803500149276e-01
8.41916407740784e-01
2.43716893416135e-01
8.61840015587455e-01
4.95495958022074e-01
1.96924429119025e-01
5.87759838525711e-01
6.98457225955596e-01
5.80907013952527e-01
8.81288839456042e-01
2.40040422590049e-03
3.76241672194158e-01
2.69895078436515e-01
6.02332551843680e-01
6.81619795376588e-01
4.16855428095547e-01
6.75677047814987e-01
3.41051989413313e-01
3.00115822577714e-01
5.42259909651167e-01
4.09437649529489e-01
9.30817123958837e-01
8.45945425595850e-01
4.55241433750360e-01
6.80242998126639e-01
9.23486074637648e-01
1.01497094813589e-01
4.07226941782219e-01
6.83476657172545e-01
7.52821089193766e-01
6.12497221072674e-01
4.47441054423759e-01
8.36837502317807e-01
3.75368720783146e-01
8.90798017758707e-01
7.51462211427453e-01
9.17180900290161e-01
9.26370152236663e-01
8.51796501885960e-01
7.62223258999970e-01
6.09695636686133e-01
7.02794989694356e-01
2.82287567740735e-04
6.40362740453567e-01
1.63653441909495e-01
1.62337349223420e-01
7.52891572129456e-01
5.48682622101005e-01
2.91367143249245e-01
6.54510335438057e-01
6.05430800842921e-01
6.88182305318477e-01
3.81192393553040e-02
4.83899817996129e-01
1.85311862412045e-02
8.51350666913569e-01
4.30343112623048e-01
6.77055674362521e-01
1.36224526322467e-01
5.63234813083659e-01
3.63687218493442e-01
7.46168460089914e-02
2.71219314932682e-01
1.00459793739314e-01
3.13278183025462e-02
6.66265659814421e-01
6.76134264920457e-01
3.23088341667059e-01
7.24959366132002e-01
9.27830828883413e-01
4.05791445096345e-01
5.98700456777597e-01
1.86644102469888e-01
7.28792406119758e-01
5.96028491794241e-01
9.73426008903046e-01
3.53988820454573e-01
4.47897636653789e-01
7.49716373702132e-01
9.52212728323902e-01
5.64352959495052e-01
5.67960601420669e-01
5.93865217307255e-01
9.10274598651936e-01
4.82844693675677e-01
2.63608726934347e-01
5.14278130777895e-01
3.01646076498182e-01
3.80234474488259e-01
7.77770449737920e-01
5.13468643313044e-01
5.30302917121235e-01
8.11953465451885e-01
7.00673836924450e-02
3.72522477045330e-01
5.30952397479527e-01
6.86348058031851e-01
8.06234447516314e-01
3.48987542101563e-01
7.26097511921428e-01
6.68929769118750e-01
4.96840982818537e-01
7.14513932987009e-01
8.99255058782700e-01
5.06291245570015e-01
8.59941529611708e-01
4.80118727627007e-02
7.06231791882635e-01
9.93099948943055e-01
5.34462704166253e-01
9.80580057705409e-01
9.20558475170692e-01
1.41709534106002e-01
5.34540345032928e-01
6.59375944717141e-01
8.59875353542521e-01
6.42426565349058e-01
2.83588807316794e-01
4.78920277020028e-01
5.61188781639839e-01
1.84823200149708e-01
9.00534141865474e-01
4.57046787289147e-01
8.13516180697244e-02
2.82725132332059e-01
6.48447737957319e-02
5.21874325588137e-01
8.83339327657101e-01
8.59161688667563e-01
7.16702805935178e-01
2.12770865476319e-01
7.04612955556339e-02
2.33222589591479e-01
8.74500093522946e-01
9.28946625400908e-01
3.66818108686338e-01
7.41352062177698e-01
4.34568628294844e-01
6.82707765917463e-01
6.50455784960489e-01
3.71351180819385e-01
5.45494246737724e-01
1.21188002879369e-02
7.00182688643870e-01
1.70272194973019e-01
3.56627025451265e-01
3.88193590296574e-01
2.94672108103105e-01
9.59767191797529e-01
2.69553177363389e-01
6.32193836819752e-02
7.34567183299747e-01
3.43018760582881e-01
1.58359382678315e-01
4.91938887611866e-01
6.82639150884097e-01
5.75660244801386e-02
1.08667697031262e-01
4.00509896652678e-01
8.96814129673095e-02
1.99506841342804e-01
3.67253872763460e-01
8.20259001972108e-01
4.52760654127944e-01
2.70538297510409e-01
1.65807310289164e-01
9.97122739788206e-01
7.24459592985598e-01
5.29529458140855e-01
5.95258934465620e-01
6.95330540372762e-01
1.51761286447981e-01
8.02904641065090e-01
5.37980496706211e-01
2.99420578236980e-02
2.81293690302270e-01
8.18072635750871e-02
4.69495290615466e-01
2.29319156298012e-01
2.02440318682061e-02
8.71725936568092e-01
3.84737589433681e-01
9.19945397699382e-01
5.19155860254967e-01
9.37911292099223e-01
3.61593244866875e-01
7.12941114433234e-01
1.11751904158053e-01
7.82242512684895e-01
6.74650578619992e-02
2.59425147291536e-01
3.19086754712226e-01
7.70073916167454e-01
8.25983749909436e-01
4.49449561382591e-01
6.29323917171557e-01
8.81788190593843e-01
4.79489924867426e-01
6.71973268948471e-01
9.52330590991635e-01
7.35267301222499e-01
9.23693928981797e-01
5.77986814636109e-01
8.53006867236046e-02
7.98524481891716e-01
6.85479051612758e-01
1.82764774622044e-02
4.93175332685945e-01
1.91986093565322e-01
2.82707432557795e-02
4.47402844131706e-01
3.35957440446665e-01
1.05557217444224e-02
3.81299034692334e-01
4.66030281514295e-01
9.03515310543664e-02
4.72228171954473e-01
9.72994240449730e-02
1.23517383239714e-01
8.48525410109809e-01
7.16236705050055e-02
7.23280440472794e-01
5.37723328699560e-01
2.97723288236533e-01
3.98640100456664e-01
6.91271467354142e-01
8.32595364780592e-01
4.69786412573313e-01
3.03189037505748e-01
2.59706006810981e-01
4.07014184232815e-01
7.12118861974557e-01
6.33214624564793e-03
6.03376363127591e-01
9.38739724996198e-01
9.70410039726940e-01
4.11461619004931e-02
5.84219515061814e-01
4.66376316511236e-01
2.57777330879895e-01
7.63664713252232e-01
7.24373362540758e-01
5.49693356547797e-01
3.34744411518527e-01
1.41004706907198e-01
6.26330873045213e-01
2.89645108288932e-01
6.94292417965406e-01
4.84961657354406e-01
4.08662603977848e-01
5.93841178431464e-01
5.85438567901991e-02
1.88488436956693e-02
3.37237573791251e-01
5.52952593779973e-01
2.63965300406691e-01
9.92891252172537e-01
9.64811294758420e-01
1.75304410710846e-01
3.85100810966342e-01
2.74276415622106e-01
6.75190362371409e-01
4.31344486707177e-01
8.53831705173202e-01
8.94250918671757e-03
6.53201696792455e-02
8.96495909490395e-01
5.19709561654681e-02
2.23028278338295e-01
2.76041474477567e-01
4.15428753862514e-01
7.69002845695821e-01
9.08964905946335e-01
3.53090773107186e-01
3.85090257960545e-02
6.68909887797153e-01
9.96836855155542e-01
7.33137038959951e-01
3.79978702323657e-01
6.59181217886811e-01
4.64451630333313e-01
4.89479642839576e-02
5.15273520902411e-01
3.43779212633901e-02
6.74286331886236e-01
4.84139137556822e-01
9.79303074334303e-01
7.11036306562320e-01
2.95142776577069e-01
2.71952281006815e-01
4.31321029739399e-01
9.10446912225390e-01
2.17180221237176e-01
3.62158124878205e-01
4.48090367408388e-01
2.27135251602994e-01
4.45091991677521e-01
3.08324780612883e-01
8.55312665766878e-01
1.55962478187117e-01
1.26717106759319e-01
7.81793933410774e-01
2.81308024461996e-01
6.07853995412321e-01
1.83507399238618e-01
4.27399223645215e-01
4.93658411205069e-02
5.91564936650963e-01
1.10441866363404e-02
5.50183407279974e-01
5.13868626774860e-01
2.19146452903541e-01
2.44620680201359e-01
7.61421962038282e-02
4.30265353238016e-02
7.54508060960937e-01
5.93786608807369e-01
6.70982882773455e-01
3.29834293912296e-01
5.79635588623822e-01
8.06674656438877e-01
2.97526386565037e-01
1.75927477284518e-01
4.84516222559211e-01
5.18248372075372e-01
6.84231304692140e-01
9.20218002950368e-02
3.09696628356352e-01
3.27778026272808e-01
5.43353979945348e-01
3.36297259867821e-01
9.68086480159492e-01
3.91520257852772e-01
1.81900276153039e-01
7.24157684933326e-01
7.92495915389726e-01
5.62815893932974e-01
3.93816393447467e-01
3.75467852750248e-01
3.65874570133639e-01
8.11610778383544e-01
9.83429413386385e-01
5.67945218961463e-03
1.27467946383001e-01
1.43878600015956e-01
3.19189567677781e-01
5.11931792297387e-01
5.53404987871646e-01
7.11368283747586e-01
4.53957498724705e-01
9.33897759081421e-01
7.10246675849038e-02
1.57793858006472e-01
1.18934798100091e-01
3.22315228003174e-02
2.17175874226229e-01
7.06108634891089e-01
2.96073601654457e-01
5.14029087144547e-02
2.06098566468407e-01
2.69853151371212e-01
3.80969389677265e-01
5.03588739090992e-01
8.54974972987724e-01
9.09029460079810e-01
7.22136346214444e-01
4.67751050852463e-01
2.78352783967096e-01
6.95077844214324e-01
5.90566273017634e-01
6.16854464735754e-01
5.97662731753194e-01
4.75501076692228e-01
9.19560933237852e-01
8.59501705747702e-01
7.63121680498284e-01
3.60675651058556e-01
5.26548565756791e-01
6.93604610300685e-01
1.22009436601865e-01
6.45820612496850e-01
1.95856638728996e-01
8.28126534024855e-01
2.55766736361271e-02
6.12784389348931e-01
5.30330897731279e-01
1.35020523804775e-01
1.20494209777897e-01
7.66234302437215e-01
7.27723763573421e-01
7.93592498798271e-01
2.13253542621702e-02
3.91758779657893e-01
8.91230941461672e-01
1.41954650383531e-01
6.07364415223597e-01
8.15104956680550e-01
8.25338205997093e-02
6.02726524043674e-01
4.48151071894408e-01
2.44646572390708e-01
3.30763686025736e-01
8.71489659615117e-01
7.52997031698730e-01
8.50397070250129e-01
7.32237091364424e-01
4.34491507802506e-01
2.47466306197294e-01
3.03125953454486e-01
1.80139069245185e-01
7.18470499686256e-01
2.23583103279543e-02
6.29166856099816e-01
9.39514164968522e-01
3.47243151144881e-01
3.26440382099297e-01
9.19004887711102e-01
2.84600463369534e-01
2.57817939809798e-01
6.94143115293586e-01
1.09593648041066e-01
6.10474306425185e-01
6.77411031670988e-01
4.86285188750080e-01
5.50901119106228e-01
3.96923282794451e-01
8.96153585400491e-01
1.97977384303170e-01
2.09660061696002e-01
6.33019125713869e-01
9.69547896135564e-01
8.61539519967426e-02
5.33667989152914e-01
8.87188693208614e-01
2.12752732409872e-01
4.31923195125185e-02
3.28721656669989e-01
2.22820467695817e-01
6.16715540527968e-01
4.12303486112384e-01
6.89556345394700e-02
3.31945817709542e-01
9.30119540180162e-01
1.54645828256076e-01
3.49671887734826e-01
4.01535313345261e-01
2.13345335832666e-01
4.02392114081644e-01
5.05622898602366e-01
5.10943507952833e-01
6.57296234683273e-01
4.79911208224994e-01
9.19153879800073e-01
2.71585122391823e-01
5.95831817226028e-01
2.42268776705951e-02
2.22093793030952e-01
5.60915498901175e-01
9.43380432006412e-01
6.92223166022329e-01
9.39925466781963e-01
1.09065691839050e-01
1.14940527464961e-01
6.49170851878328e-01
1.22211625786669e-01
5.65749358547963e-01
7.59828841631444e-01
3.72490286970344e-02
3.03506719513450e-01
9.75817516482881e-01
4.72845379170230e-01
2.65871083498656e-01
7.80488586505708e-01
9.88917260888239e-01
3.35878969992597e-01
2.62466172861264e-02
8.17332375657745e-01
7.23490209103887e-01
1.23762749862943e-01
7.21545133281841e-01
4.23131322669747e-01
2.93300511911963e-01
2.63464893766401e-01
2.52026560223179e-02
7.28286260519574e-01
1.59881399159061e-01
7.18998724480234e-02
7.54144534220079e-01
3.76236469762939e-02
4.17452597881860e-01
7.86498465297785e-01
3.46328234138112e-01
4.25858109492850e-01
4.43511263022699e-01
3.02586089123736e-01
7.32481027288670e-01
8.44950840885151e-01
9.39960436594114e-01
1.96220658562406e-01
4.20035810547055e-01
7.91369528272479e-01
9.15748765239072e-02
8.06624859743181e-01
7.74654004660946e-01
9.93486234187672e-01
4.52191794172912e-01
9.16721983295049e-01
6.30255984895062e-01
6.01937671146530e-01
4.32952153707887e-01
2.55177979979547e-01
2.54048619346582e-01
5.87488672547365e-01
1.70338089003245e-02
4.81966821863055e-01
5.70507222531980e-01
9.11739379463035e-01
4.63186086289746e-01
3.52144187637184e-01
9.68206045952101e-01
5.97548491352548e-01
1.07864784135719e-01
8.30243413863110e-01
8.31240041001361e-01
3.62156209766823e-02
9.96804669879393e-01
2.34029316821368e-01
4.35671660500145e-01
1.27199582278397e-02
3.92928880085767e-01
7.44550760862710e-01
7.89343900282440e-01
2.93232251389880e-01
7.60496343804693e-02
9.94133829043359e-02
3.65744012546375e-01
9.42812149442003e-01
8.72827257856068e-03
6.55482502096105e-01
1.21653446946277e-01
7.17942913339578e-01
9.00602989801825e-01
5.84456767601083e-01
9.83927781299992e-01
6.19512587336222e-01
8.74252442405418e-01
4.72375970629584e-01
4.28016786424822e-01
3.25119606041498e-01
9.38812573480927e-01
8.90584037010576e-01
4.55716373418752e-01
2.66592652857283e-01
5.05845263959249e-01
8.46732395432164e-01
3.30767110440249e-01
8.72670719892828e-01
8.23194589153918e-01
5.76173069228833e-01
8.79585754068621e-01
4.51850965899233e-01
4.11029408329202e-01
2.79926195437853e-01
8.54367347760864e-02
5.25220609381479e-02
1.32189920339712e-01
9.22326532842404e-02
1.25648172827733e-02
4.28660684777471e-02
9.75143228197519e-01
9.82174883409882e-01
6.19793462813659e-01
2.66377517041935e-01
8.85736024612326e-01
3.69136169589876e-01
8.54798405107837e-01
7.81469736917141e-01
4.43899524799482e-01
1.99041494749166e-01
9.44114474555076e-01
5.27506869448499e-01
2.19465071471310e-01
9.47290965038184e-01
3.50168857360977e-01
1.92928333774155e-01
6.01281630414853e-01
1.68969270011890e-01
5.92326960002255e-01
3.43856337100926e-01
2.23297909184280e-01
3.67820260920346e-01
7.02283523296066e-03
9.65426200119563e-01
7.36338215470625e-01
2.32848644180388e-01
4.18245108228081e-01
1.88223635166527e-01
5.80113308435699e-01
8.10092068290363e-01
7.35165848869680e-01
3.56347354258853e-01
4.00987935417391e-01
9.79976420821048e-01
6.36412408122584e-01
3.10006643285329e-01
4.50491369792524e-01
1.22391669853906e-01
4.04491511201243e-01
8.17568231243523e-01
3.74494541435857e-01
5.97058236499109e-02
5.95464108742842e-01
3.30042479505181e-01
6.71186494902427e-01
6.87899884575566e-01
5.56489314868840e-01
2.65058347327653e-01
7.50793788489726e-01
2.96362555564066e-01
3.60038865939630e-01
8.37180870945533e-02
2.91603484725916e-01
7.39428544224519e-01
6.67571153952838e-01
5.35559326339763e-01
5.35022905377077e-01
4.14774003058944e-01
4.03746130031546e-03
8.15864550759449e-01
4.18824795095157e-01
1.01719258639942e-01
9.77017560456660e-01
9.98115128340790e-01
3.48954538204244e-01
9.35650058188505e-01
9.81234343609284e-01
4.11538307229361e-01
9.67042894881040e-01
3.46177497860625e-01
6.16985433964056e-01
3.45462753727705e-01
3.87461847403817e-01
8.16250147337845e-01
4.85720352133232e-01
1.21216392745098e-01
1.08168586057330e-01
8.67948540572909e-01
8.00723837119699e-01
8.72488610334742e-01
2.02415951636693e-01
3.31324459554522e-01
1.50085123194421e-01
4.07287285408972e-01
2.44565143734525e-01
1.56118513324564e-01
4.22147775364445e-01
7.62100701874405e-01
7.74410746134480e-01
3.76122122774171e-01
7.80653420981757e-01
7.76586621408469e-01
1.64623026021060e-01
7.86637012675509e-01
9.57521595837940e-01
5.54445181085080e-02
9.08153022758718e-03
5.21597229645046e-01
5.35372626802951e-01
6.58068396365307e-01
2.91879281747361e-01
2.00962850101284e-01
8.74594385217941e-01
7.74322650296150e-01
4.91424202731162e-01
5.56734867580119e-01
5.86300628188689e-01
7.29493836700767e-01
8.93359536694058e-02
1.72174763025577e-01
9.12537738479570e-01
5.65231597696177e-01
6.73237998662081e-01
1.18300627692152e-01
2.58903886336875e-02
4.49280235631581e-01
7.25923387903610e-01
9.62878742913649e-01
8.15223214065663e-01
2.24428996115778e-01
3.21021792684831e-01
3.33950993290273e-01
2.96779596930195e-01
5.89227464786450e-02
9.70830814657419e-01
9.34243464261934e-01
9.27777911337588e-01
7.95341008627047e-01
4.80498120558802e-01
4.72083903356414e-01
3.84421240843023e-01
3.21297600119406e-01
9.56304403852756e-02
3.99934427977503e-01
8.86603174720824e-01
7.64187940116883e-01
9.75200242316568e-01
5.41164703731483e-01
6.20350738413295e-01
2.05654084793787e-02
3.92567560286249e-01
8.21846957570194e-03
9.32166305337441e-01
1.45961997497283e-01
5.03942142513984e-01
8.50997183376799e-01
7.05444624800292e-01
1.19568972642505e-01
1.38426768153310e-01
7.82295594487947e-01
6.03837234311274e-01
6.51028884546183e-01
8.78173103615322e-01
4.32989684023832e-01
8.95288678512540e-03
2.39143286096588e-03
1.57590839312826e-01
4.84788481143346e-01
6.40730875152628e-01
7.24248838223349e-01
7.57943853370572e-01
2.36826188355540e-01
9.58354376330926e-01
6.26011282330701e-01
8.27252814726742e-01
5.45074289373992e-02
7.55165790451880e-01
6.80534071635439e-01
2.91898987691064e-01
5.03068388650633e-01
4.17992862251805e-01
9.10771164527184e-02
8.48456369534506e-01
5.31727922811117e-01
2.81521769920777e-01
7.45908886093885e-01
2.33796702283429e-01
4.97126621628984e-01
6.45662211813272e-01
8.05081327645422e-01
4.00895147129288e-01
1.56016842094162e-01
2.53017494804011e-02
9.62100880553371e-01
8.99362466764995e-02
4.66137138651147e-01
3.17684259928460e-01
2.66289953497247e-02
9.51159749018606e-01
8.22403844121413e-01
6.84287456041992e-01
2.31781607392778e-01
4.95762765820711e-01
1.76260188841550e-01
3.80137421543856e-01
1.07530946991546e-01
5.61501817429206e-02
6.55026294006474e-01
4.90398611195628e-01
8.04590026642306e-01
1.46700767366855e-01
1.22095623363457e-01
2.90646067813319e-01
2.81020739211940e-01
4.63695414476849e-01
3.46766414375256e-01
7.74760752095265e-01
3.64513742076480e-02
9.62409254852933e-01
2.70267673785716e-01
8.81106045483531e-01
2.08356361987715e-01
5.92811637542211e-01
9.62121709011843e-01
7.41983602030285e-01
3.59123576500905e-01
6.00441218318162e-01
3.87573066420240e-01
2.34160607115409e-01
7.05461066611979e-01
4.15068934484361e-01
9.84256814208511e-01
7.48976781653170e-01
7.61095085399938e-01
3.69472930613514e-01
2.30953499366618e-01
5.56570769637779e-01
1.06644015645307e-01
4.28755311569633e-01
6.99123245351221e-01
4.54519183951537e-01
8.25855036059550e-01
4.65514604397786e-02
3.73523959247525e-01
1.15433801699570e-01
4.65705051467274e-01
9.11014247597347e-01
7.79227177439369e-01
2.12793427048472e-01
4.40195079823654e-01
8.48349976952632e-01
4.29878326264336e-02
9.46941185687332e-01
7.86331346649849e-01
8.27491763559323e-01
6.73634698118327e-01
5.49491865094112e-01
3.48739509180819e-01
4.47725863459828e-02
4.95342228393918e-01
5.00420433703134e-01
2.97637801001613e-01
5.48371189548728e-01
2.17101614523021e-01
8.24551899849423e-01
6.51162058380997e-01
5.87611436886506e-02
9.51188051009134e-01
4.12034066269729e-01
6.89704375761334e-01
9.43101577611907e-01
4.46161669912518e-01
9.74809866365160e-01
8.88931093209565e-01
9.59426927092020e-01
2.34956737066533e-02
7.39589726556539e-01
1.29267365731693e-01
8.55384469418845e-01
3.16459067882058e-01
7.62336083476103e-01
3.05033216401405e-01
5.39249443239825e-01
2.08194984151986e-01
7.12376372618904e-01
3.81058869468455e-01
9.03324753191967e-01
6.64066974060231e-01
6.29656560278208e-01
4.53838924597867e-01
9.07280892868296e-01
7.00897529386326e-01
2.09075001421225e-01
9.69086370400186e-01
8.92144527610483e-01
8.72568618248241e-01
9.17092305255872e-01
8.86768778750694e-01
9.72938525149596e-01
8.07677741239359e-01
6.84738368081038e-01
9.34076598442601e-01
6.50532901052939e-01
5.13364283901895e-01
5.54105015959810e-01
5.25614289736389e-01
5.35001554291012e-01
5.62568227028625e-01
4.90155050019522e-02
1.21843677598553e-01
4.06137763637603e-01
2.48710325184844e-01
9.54630387039261e-01
6.43826942963104e-01
1.83920149326151e-01
1.70825840240059e-01
8.68529106841644e-01
2.11224403125042e-01
9.03686614345209e-01
6.44108804702732e-01
1.41806996368251e-01
7.67369266905408e-01
7.38496754367389e-02
9.60722663416184e-01
9.30373006763720e-01
4.38021720964571e-01
8.50789258921159e-01
3.12764328970168e-02
9.69138687650380e-01
3.98395578050426e-01
7.37639031914467e-01
3.49548048250297e-01
6.22295710687670e-03
9.94348746166078e-01
9.32743791602377e-01
3.57503627006403e-01
5.27822162257891e-01
7.74946286512539e-01
2.32111047847871e-01
6.63017505829979e-01
4.02535550837309e-01
6.22810201746424e-01
7.01842163096074e-01
8.53205612819852e-03
9.50704449952744e-01
2.99011447011533e-01
3.47042913504472e-01
8.73449380527048e-01
8.37525401795422e-01
1.56055618519965e-01
1.08308379600330e-01
4.15577687002916e-01
7.76987467485967e-01
6.31929622249687e-01
7.57911579155226e-01
3.74947916711897e-01
2.07483570294778e-01
1.76543542564106e-01
7.31249375450049e-01
5.53336036383077e-01
6.48862333288034e-01
8.97785576800383e-01
3.07218264208333e-01
4.13817067598909e-03
8.66940236613944e-01
2.46327181142446e-01
5.83721138281565e-01
6.34027193012290e-01
6.91660666555920e-01
4.41378909457390e-01
2.90855925390568e-01
9.10268090655203e-01
8.02127530903772e-01
3.84154682277973e-01
1.85627439120497e-01
7.27773800837516e-02
2.61068181334615e-01
6.13357336996682e-01
7.83893741127445e-01
9.64740554379457e-01
1.15425617596914e-01
2.59189683769928e-01
8.87411344854743e-01
7.86631937569392e-01
4.25702469336497e-01
6.24734608086179e-02
3.24730358525274e-01
7.27558296037364e-01
5.21671045870902e-01
7.38015329693647e-01
4.17260917709565e-01
8.54524090037653e-02
4.07912244982399e-01
8.17950990100061e-01
5.04959778525838e-01
3.28012597746193e-01
6.25494107163293e-01
6.52600869932983e-01
9.71462863803674e-01
4.86520285364668e-01
9.34386406027117e-01
5.73597261922496e-01
5.48849622570589e-01
6.83699787212295e-01
1.12658436141826e-01
4.05269030060208e-01
1.31904465126806e-01
8.38112618046602e-01
7.05206432717913e-01
5.06399768815544e-01
8.29210787832535e-01
9.17431842346331e-01
1.50692902760873e-01
5.69329025939917e-01
1.84876587202812e-01
6.33411116123421e-01
4.20154125423168e-01
7.03271147780280e-01
7.35959055421090e-01
7.77571132244487e-01
4.08434364232525e-01
5.24024903916538e-01
6.73867890383059e-01
4.83877645319847e-01
4.64315429993895e-01
1.53985214835711e-01
8.68630498368691e-01
3.63920390739271e-01
5.71572077104074e-02
3.16039680163732e-01
5.78939725330080e-01
3.02745057325885e-01
6.78003586394066e-01
9.37335788918396e-01
4.78953689929672e-01
6.97744372184849e-01
1.06067550546926e-01
5.25925908216274e-03
2.68332971319868e-01
6.55046141878286e-01
2.23491269940896e-02
4.13139687029800e-01
1.00963560124726e-01
8.39622440155915e-01
2.63052324489650e-01
8.24490142339848e-01
3.99316107607722e-01
1.56189005086771e-01
1.55082124862995e-02
9.85145046328427e-01
5.59740323766921e-01
6.35277081898277e-01
2.95924060892884e-01
5.06286838043807e-01
8.67838956364707e-01
4.39136833231130e-01
4.10438298273671e-01
4.26201061245769e-01
9.60911982492498e-01
9.73098014446109e-01
9.14074621937281e-01
4.05497781072108e-01
9.65552875180789e-01
2.26108855772988e-01
3.64658781635138e-01
3.05775775244756e-01
3.14857184448008e-01
1.08619957528857e-01
7.17488753895254e-01
7.05780037191655e-01
8.37738760998998e-01
7.88406438142140e-01
6.66666684941343e-01
5.92186818544707e-01
5.73833637014270e-01
2.07331674847809e-01
3.77071414341212e-01
9.56156824003148e-01
6.25966068162161e-01
6.45726257892824e-01
7.32863953304463e-03
2.45767187192843e-01
1.72035097589138e-02
9.77907590363698e-01
6.71089929640454e-01
4.77465889080490e-01
3.64853313832897e-02
8.61809515079325e-01
5.20525306588539e-01
8.52420152188830e-01
4.29084503098709e-01
6.09748581877327e-01
2.09711989622542e-01
7.97247807247554e-01
6.06106157954511e-02
2.57462625235351e-01
5.79966779319326e-01
5.70635196011558e-01
5.80688119166189e-01
4.44231282995951e-01
5.12048969839576e-01
3.92793204348438e-01
2.92882913812561e-01
7.04936745501058e-01
2.01563324639399e-01
3.79420602329394e-02
8.32280578268928e-01
1.66034167902195e-01
6.26972728895850e-01
4.94493592409321e-01
3.19110576391665e-01
6.15129431972150e-01
1.63935027335299e-01
9.16897747888346e-01
1.65375820326945e-01
3.21977473000814e-01
1.86210226682893e-01
2.11262506477519e-01
6.65024240517644e-01
7.21457049618861e-01
6.95896571182737e-02
9.14002715079635e-01
7.75137118889913e-01
2.13089325336626e-01
2.90634714332390e-01
7.48740744244125e-02
4.77763772156122e-01
8.68909523909344e-01
7.96221426166036e-01
3.49571359312476e-01
8.48412065200787e-01
3.14037019013545e-01
2.69759638277557e-01
6.46885237557653e-01
8.81247796895802e-01
3.51139723035332e-01
9.49258309951112e-01
3.85438306298619e-01
6.44303545818251e-01
5.55060595695061e-01
6.20153524171527e-01
8.05715913116213e-01
8.16951381753095e-01
7.94172955455880e-01
5.74423092024320e-02
5.63739415054617e-01
3.85875693269796e-01
7.24574483636106e-01
6.31006404820449e-01
7.73796795086364e-01
7.12363117646082e-01
3.13522522112271e-02
9.64587939595323e-01
4.43558534457575e-02
3.25173068149578e-01
5.90560991258580e-01
1.24919975592329e-01
2.70865322014459e-01
5.57378097239419e-01
9.45268647485299e-02
8.89008731557503e-01
2.01671214282551e-01
3.41887841328580e-01
8.63149040059115e-01
4.72797301174370e-02
7.61685337106400e-01
2.31384287677864e-01
3.09474642325326e-01
2.71460015425051e-02
7.69844975412665e-01
2.01037820168273e-01
2.61478942901588e-02
4.43217934539567e-01
5.75490074875245e-01
3.96154240202805e-01
3.14150661650959e-01
5.25673933140026e-01
7.64666810292110e-01
4.99440389180854e-01
3.24817209789418e-01
6.71457283126293e-01
4.17582499272262e-04
4.31973414526372e-01
5.76172821829320e-01
9.97027970186243e-01
6.87609012000914e-01
7.78779256651047e-01
4.00722108617115e-01
3.53568112051143e-01
9.49852597973196e-01
2.49132688654049e-01
5.47291167693505e-01
6.45841168271620e-01
7.75259529140685e-02
6.31267333012155e-01
1.11012754377624e-01
7.50859568925456e-01
3.37081754527034e-01
2.24833075161255e-01
2.06925279492838e-02
1.03822912099730e-01
5.07197155521289e-01
7.97959770225171e-01
7.11908120304439e-01
7.53585792883980e-01
6.41208094857086e-01
4.54401673498263e-01
4.14908699867972e-01
6.62925048756283e-02
4.36432007373140e-01
4.70462437846324e-01
8.93456473460740e-01
4.61056956257563e-01
3.17193051016418e-01
3.62699569419467e-01
4.13206664106535e-01
4.26780018500754e-01
7.96763879624620e-01
8.77598654394827e-01
1.78934749693257e-01
1.14104065759719e-02
1.93512343505126e-01
3.17171278288226e-01
9.11641954247585e-01
4.90131657098250e-01
5.65757826925799e-01
6.31198138464983e-01
5.33141635318609e-01
5.87227029682218e-01
8.37100118661111e-01
6.17245762502081e-01
1.44247600653803e-01
3.59550431755384e-01
5.38703170011874e-01
4.89820427858743e-01
3.86862200044705e-01
5.76343347166319e-01
6.46994711288298e-02
6.93494961032075e-01
3.46947681485377e-02
6.68145147399490e-01
5.13549691992802e-01
8.49256784253409e-01
3.93576219908130e-01
1.64959398428598e-01
4.63192262185015e-02
8.64437674676833e-01
7.45323072835979e-02
8.01994832715080e-01
8.58515819177111e-01
2.74816045192014e-01
7.42892639087549e-01
3.97132466192762e-01
1.17774360001936e-01
7.95095009651512e-02
9.14096170951516e-01
8.28091261986411e-01
2.68169398559492e-01
3.09982322513911e-01
4.40896112229528e-01
5.80848081418284e-01
9.81427655291437e-01
8.39213311429721e-01
2.17862200955700e-01
9.95828777690807e-01
2.52077863436407e-01
6.27589029855931e-01
4.47373289822951e-01
9.91399339643767e-01
5.48515991923595e-01
5.92749925134130e-01
4.25617944655022e-01
1.48780037857343e-01
8.94940562489085e-01
5.60245779059410e-01
7.01010743749850e-01
8.97088221413552e-01
5.44274276366642e-01
2.52420645091128e-01
8.23460640928526e-02
9.74677785998459e-01
2.91718805627189e-01
2.60910238527254e-01
5.12209354295321e-01
1.06383017585406e-01
1.50763075928302e-02
5.82332196054969e-01
3.06054593950956e-01
1.37935239654593e-02
4.91486503291386e-01
3.30191131248631e-01
2.19011534333200e-01
9.88493814778135e-01
1.27532849691147e-01
9.24460077556040e-01
8.70768336203555e-01
1.97191938974873e-01
5.32368093316048e-02
3.52779514061178e-01
7.84534125883602e-01
5.08379581047467e-01
5.24667329936928e-01
7.24633362133835e-01
7.49408928552954e-01
2.60007605229944e-01
1.60447125453173e-01
2.90425095822572e-01
2.93107696486668e-01
6.16702277900804e-01
5.82663524344822e-01
7.23996551448018e-01
8.98198329275575e-01
6.54949988755997e-01
7.79156694398810e-01
5.35541256164839e-01
6.26408644923241e-01
4.40763868135849e-01
7.63029587583976e-01
6.72412525963624e-01
6.75330638563207e-01
9.48931641989826e-01
4.30414901381211e-02
3.55007169565021e-01
5.15416768216143e-01
7.45397383310142e-02
1.12487377548003e-01
8.54133764581398e-01
3.99110472327007e-01
3.78610867027301e-01
1.44680769366253e-01
1.23723193028424e-01
4.38391589970541e-01
2.10714183267051e-01
4.19159843442076e-01
6.88041792177620e-01
8.59222437200829e-01
6.55620251738204e-02
3.32081618451314e-01
3.83852135935126e-01
6.12070514672009e-01
7.02923053302757e-01
5.65949197399196e-01
5.42558361205760e-01
1.71286708160840e-01
4.12114161103502e-01
9.36699460747686e-01
1.87419010938006e-01
2.44870646762892e-01
2.49045537986534e-01
1.44555731988238e-02
6.00933553012285e-02
5.65711489598908e-01
1.65648457442262e-01
2.70381533578332e-01
2.20585703929773e-01
7.10038338839784e-01
5.53006541639223e-01
7.00459176450793e-01
1.33156691464261e-01
5.43159393110967e-01
2.90721518789686e-01
4.53294924899569e-01
8.57416627555232e-01
3.20292889180010e-01
8.38562408716972e-01
7.45709792218139e-01
4.87426778989364e-01
5.12365680549908e-01
6.77911035016471e-01
4.99235832648738e-01
8.29583165523718e-01
9.51708055044836e-01
2.59176901507419e-01
9.61677645349514e-01
3.24847355153718e-01
4.03240399740004e-01
8.61110565070905e-01
8.00975547508460e-01
6.58434619819732e-01
9.55035562415101e-01
2.66095159248964e-02
3.43291409120074e-01
2.62700374058155e-01
9.79777721442343e-01
7.96245417184736e-01
4.87950770739188e-01
5.84268001305141e-01
6.29237679646002e-01
9.66032646338007e-01
4.84044168639274e-01
2.66581089221538e-01
9.93726403967966e-01
9.30920445840253e-01
8.12691169299750e-01
9.21016195164278e-01
7.92927980606857e-01
9.61998849490057e-01
9.13760001191286e-01
9.87949635568647e-01
1.00189413119754e-01
9.23866261769957e-02
2.40195739967472e-01
7.78363464101430e-01
2.01214879553661e-01
8.78552056659752e-01
6.76615048912391e-01
8.42305989107410e-01
2.83441543099811e-01
8.67044087592101e-01
4.31854943185806e-01
7.67020333846354e-01
5.56265946609094e-01
2.77075781940719e-01
4.63915111898409e-01
6.14527450368269e-01
1.31700760883718e-01
1.48295461691650e-01
2.43891948669884e-01
2.81760489567628e-02
3.82305729156759e-01
6.51887783192854e-02
4.52298291497639e-01
9.62311904619396e-02
9.12015752394565e-01
8.70229625488472e-01
5.73869162727563e-01
5.31953957907034e-01
8.90898342440703e-01
6.56237392199234e-01
6.92816193673475e-01
8.81479558963604e-01
1.20261975610843e-01
2.56480983712381e-01
7.23942851671386e-01
1.24856359583495e-01
3.13441911122314e-01
6.80997618483380e-01
9.92717011698544e-01
5.55849419216332e-01
6.48029479467844e-01
4.99167431782874e-01
6.62220884050572e-01
9.82568467478881e-01
1.16582909591581e-01
4.30290048773288e-01
2.74140872391259e-01
6.62356885755706e-01
3.64897891190224e-01
1.22824260716431e-01
9.59788942537765e-01
6.05791147808683e-01
8.80760444973472e-01
6.76125520414315e-01
7.48352936751583e-01
6.90287213397478e-01
3.15148885311196e-02
9.71069222711731e-01
9.03227088320510e-01
8.45363464125791e-01
5.87849649925863e-01
2.15780032008967e-01
2.32180623924834e-01
8.18312602261772e-01
5.29567681941175e-01
2.30001126666723e-03
3.33574546531821e-01
4.54380537042332e-01
6.66683559365218e-01
2.25261670408288e-02
3.24406357840692e-01
8.30135694437363e-01
6.64673024505178e-01
9.37114920664653e-02
7.34929533630059e-01
5.15078885854170e-01
1.79588871007079e-01
8.36356193018905e-01
3.09125907122822e-01
2.61273633434526e-01
6.04481808218685e-01
1.93811345310014e-01
1.44489127588169e-01
4.89729034720150e-01
1.09547355375000e-01
4.47830580128205e-01
2.82963987073844e-01
5.84644317974275e-01
8.15682440658262e-01
8.78301690897446e-01
8.87623381187719e-01
8.61083110653010e-01
9.73891656752001e-01
6.84730698392747e-01
5.28101112878491e-01
6.09914498038350e-01
2.91903519700426e-01
9.08591702447445e-01
6.18952993628616e-01
7.60305077919323e-01
9.55313379906224e-01
4.26659451362714e-01
1.80338259203471e-01
9.72388524467232e-01
9.49856500537433e-01
2.86439891858211e-01
8.17806786150810e-01
7.72702994773849e-01
2.39132208365260e-01
6.91488725744665e-01
6.00322492119226e-01
2.93027518740335e-01
2.89301505422833e-01
6.12755594757805e-01
3.13685619115858e-01
7.02086399756821e-01
2.46247434382691e-01
5.78474215666171e-01
7.03417662406409e-01
1.91635774052655e-01
3.52015113278668e-01
8.52540187731959e-01
3.21748124024736e-02
1.30233492313064e-01
3.31766349389918e-01
6.04303172466026e-02
8.26755440710763e-01
7.09836905530841e-02
1.38386833424075e-02
3.59048235942171e-01
3.47695639000035e-01
5.36988563784900e-02
1.38241283885400e-01
4.29005767998310e-01
9.09832996473443e-01
1.44273616259985e-01
5.75279406437361e-01
8.71156277605151e-01
5.13416916858299e-02
9.36966924736678e-01
7.68674446647984e-02
8.15444712632732e-01
7.65917972339148e-01
6.60530875702961e-01
1.98751822933346e-01
6.76689891620359e-02
5.43499928366733e-01
2.86426047754041e-01
4.11231759416279e-01
8.65695370796653e-01
7.67074597637768e-01
2.51348388929371e-01
2.16794245806607e-02
3.49871845851410e-01
3.82469743729551e-01
8.52475094519260e-01
2.30398167073374e-01
7.51259307567325e-01
3.95081757308358e-01
3.66285333362329e-01
2.95967514378330e-01
1.68486704521066e-01
6.28179768353000e-01
4.54296921767510e-02
6.39513861360709e-01
5.79180406281417e-01
3.73203684585678e-01
5.61312401844394e-02
9.24209760900550e-01
6.28655223390066e-01
1.81184643843968e-01
1.08744192016032e-01
1.41392371349590e-01
3.23850746602097e-01
3.09523204623759e-02
9.19856429984734e-02
9.12646680711994e-02
8.06064082066151e-01
6.58789348054864e-01
7.90279715521823e-02
8.69715814287687e-02
2.21603475619173e-01
2.89575550153314e-01
1.61990258717820e-01
4.26334854675180e-01
5.47134590910524e-01
1.52323846345662e-01
4.00765617691931e-01
5.94729063752135e-01
4.88455122630990e-01
7.94819319332263e-01
9.94534634863233e-02
4.24358859063715e-01
8.39901501095807e-01
1.81816030236000e-01
8.90105455397592e-01
7.07389650460910e-02
6.92037780857114e-01
5.81596581617434e-01
6.52096712723646e-01
4.41394159992759e-01
6.51660210944173e-01
4.88559508257032e-01
5.59405786532158e-01
7.58359643480207e-01
5.68824116451864e-01
6.32391317683481e-01
6.56018864161234e-01
7.61118045346091e-01
5.00184662022404e-01
5.23010975396996e-01
8.50627866707233e-01
4.47335031429579e-01
8.85419709700137e-01
5.03104302961042e-01
3.17371986216715e-01
9.16478290172097e-02
9.70298647362990e-01
9.69952857614022e-01
9.09670548888820e-01
6.47260350289354e-01
5.42063710971479e-01
4.50423098962073e-01
1.50995373408581e-02
5.79863194879476e-01
9.59444452810381e-01
9.62830478522464e-01
4.43559755839145e-01
5.32986119995054e-01
1.07530092710044e-01
4.20264554938825e-02
9.80332707989304e-01
1.30244284374136e-01
1.49495788843051e-01
8.74993965097318e-01
6.66478240301485e-01
6.42970724996060e-01
9.12790032691343e-01
3.83942636355970e-01
9.94517376674309e-01
2.13266863021258e-01
1.11455841182375e-01
8.97255223939642e-01
3.09674989069975e-01
8.02113588332003e-01
7.99462241854209e-01
6.75247924528889e-01
5.42322389436561e-01
1.89631834418879e-01
2.07369479221240e-01
1.37594724882418e-01
1.89145775573356e-01
5.53405630398407e-01
6.96845849785403e-01
3.43605326415252e-01
4.11307288218551e-01
8.39485768479625e-01
8.73865777672629e-01
5.77447774103984e-01
3.45522500828115e-02
5.83527223925313e-01
3.81452093540022e-01
9.09109620392674e-01
5.03434052367004e-01
9.70094727788836e-01
8.09983159107880e-01
7.01044025101192e-01
2.21954096935117e-01
2.09796483251206e-01
5.47461943011939e-01
6.44728521401007e-01
8.79742757389406e-01
7.07973901018591e-01
1.30787318535639e-01
2.33724534174076e-01
5.57954965136206e-01
1.85379411769754e-01
3.71736111420797e-01
2.38650080409853e-01
7.86016014427676e-01
4.06770996924071e-01
1.78856132966736e-01
6.25997621975248e-01
5.30742766318433e-01
5.69092707530789e-01
7.84531996181186e-01
3.36564578801875e-01
4.30007087312541e-01
7.85110744896497e-02
9.05328312038530e-01
7.45677343458978e-01
8.92041978642739e-01
4.05932436826574e-01
2.26142369501679e-01
4.93477742663766e-02
6.56461656297342e-01
4.55374990287043e-01
6.77495830759265e-01
6.51392721933030e-01
4.82671110413290e-01
6.55905000326951e-01
2.47808090954177e-01
5.66538444662513e-01
5.58253426989639e-01
9.54477733141435e-01
9.83190954764818e-01
5.35516355020428e-02
1.91305641632970e-01
2.12538994635717e-01
8.09056958951158e-01
4.39175418440566e-02
5.25673711853301e-01
1.77594902488395e-01
3.75119695097921e-01
8.07855286077854e-01
7.80721120320766e-01
3.30606272623374e-02
5.54691615452744e-01
2.42437522331599e-02
5.78715717498566e-01
4.74717246412264e-01
5.81489391191058e-01
2.18140786507831e-01
6.01746016730005e-01
9.61468789766283e-01
3.44792029945721e-01
9.95937815563127e-01
3.04293905109586e-01
3.79850902923329e-01
5.81454877869549e-01
5.79038660712416e-01
6.28623423888461e-02
3.64322836822007e-01
3.63531509596792e-01
5.32059838389115e-01
7.04817840155034e-01
6.22154856894713e-01
1.69234855460255e-01
6.21470630031152e-01
9.70253682118362e-01
9.36227109254697e-01
2.89141103434193e-01
7.38699583353051e-01
4.41121972198549e-01
8.96593536875280e-02
1.15582774976275e-01
3.86414010037758e-01
3.99303346224591e-01
1.35591955715776e-01
9.73007253479999e-01
5.55574613130995e-01
3.50468867268052e-02
2.35195278742119e-01
5.04650861491063e-03
4.07112127927347e-01
8.49054752906934e-01
2.88753427155513e-01
9.86285388036410e-01
1.68543741195738e-01
2.31929938982113e-01
5.82498976029771e-02
9.57188575796582e-01
6.08434978780760e-01
4.67951653573390e-01
1.32120896266697e-01
3.61629313308197e-02
7.14082410906509e-02
2.32198970165869e-01
7.03578314198186e-02
2.17182872478057e-01
3.62099263845748e-02
8.11706365570493e-01
5.68462530105941e-01
5.49422813418333e-01
8.29556246641434e-01
9.05585003787744e-01
1.79679279199996e-03
5.73503579215401e-01
7.65115468762629e-01
8.21855592080118e-01
2.62437037417550e-01
9.17773521300055e-01
2.47317464207269e-01
9.51211242436009e-01
5.22591258321621e-01
5.09239790212843e-01
7.10242762412574e-01
6.86930735709399e-02
3.30358161847036e-01
8.51220458198566e-01
1.86894757203322e-01
5.93647617761255e-01
8.70524851109871e-02
3.46895738883706e-01
3.21061202862216e-01
3.70496557345607e-01
4.24379051523445e-01
1.13332184371004e-01
7.90238175217364e-01
6.26815605369807e-01
2.26544378352317e-01
2.61786706628232e-01
1.05164976634063e-01
4.44120037481417e-01
4.02183407535180e-01
9.09380064061525e-01
1.04890133260589e-01
5.32558277106341e-01
3.54519792557059e-01
3.32264670344583e-01
4.62138545936479e-01
1.16682823745051e-03
1.94387648953654e-01
1.01346897384333e-01
5.17737918026388e-01
3.01339878697502e-01
7.11916669880574e-01
6.85958718773589e-01
6.79241926566227e-01
6.30672156721196e-01
3.35482604796478e-01
4.59564082936630e-02
8.61134501995929e-01
5.07631063862337e-01
1.03235661068751e-02
7.46413247198852e-01
9.73591415830840e-01
4.26091409178190e-01
5.27257324096085e-01
7.01652928801120e-01
2.17757862051264e-01
5.19345998889142e-01
6.38135636882608e-01
1.87226716656152e-01
1.83546683381852e-01
9.68400159172873e-01
5.44638045606656e-01
1.14671612781736e-01
8.82611695937917e-01
2.09734159123437e-01
8.24654017965353e-01
1.60453350114232e-01
3.99167391261086e-01
2.99196072728888e-01
8.34759121823076e-01
3.91326020993600e-01
4.20537804787277e-01
4.60603897471299e-01
1.38275835266210e-01
8.23737851803539e-01
1.66370958489986e-02
9.31002645419537e-02
7.71740774375053e-01
9.38758896755776e-01
9.54333348270211e-01
1.37582893987876e-01
4.09680448993679e-01
4.79555294683345e-01
2.47700223992261e-02
6.40176489250828e-01
5.93397780481131e-01
7.38709628379854e-01
6.66563204545451e-01
9.49657760622126e-01
6.80087621631624e-01
4.37262664522177e-01
2.39684552019242e-01
5.50244138692928e-01
3.48621289011101e-01
1.50871709644598e-01
2.01941238482852e-01
3.74997119352867e-01
1.05595425256562e-01
5.83163040973779e-01
3.24872236467564e-01
1.10094855778612e-01
3.44675651992665e-01
9.92791589249447e-01
3.70879452189372e-01
6.74577801232784e-01
2.61267881802561e-01
4.17647952967269e-01
7.85369918822774e-01
9.39359777462361e-01
1.21491998581436e-01
6.87521162613987e-01
9.61818114961049e-02
8.98741546416608e-01
1.12425606509940e-01
7.55000005256679e-01
7.28038261450218e-01
7.79127425621670e-01
5.56152957444852e-01
5.71272900169615e-01
4.61919206913556e-02
3.68980133480792e-01
8.21836767536991e-01
1.67643317849603e-01
4.50015421433795e-01
3.45674244184624e-02
1.20036037794046e-01
7.28024951845932e-01
7.42985636823206e-01
7.07097187127295e-01
9.50282024265438e-01
5.13345567744432e-01
5.97149544482066e-01
1.96157855659550e-01
9.73305577748070e-01
6.58594874946419e-01
6.93782054855480e-01
6.45900454770729e-01
1.97368811268915e-01
5.53905441090747e-01
8.88413898219964e-01
2.28488936833890e-01
1.40087822405496e-01
9.08474937523813e-01
3.95662630426275e-01
9.77916482909907e-01
6.88515868068124e-01
9.33183115585879e-01
7.07782398576420e-01
1.37065180236955e-01
4.98390180645353e-01
5.78736610616988e-01
9.31747990607017e-01
2.30039512901212e-01
2.51066428098904e-01
9.02254450520513e-01
8.36855542924531e-01
2.26575371625007e-01
3.54370589200538e-01
2.48451659205310e-01
8.36070714371989e-01
6.64688501201201e-01
8.34780855556850e-01
1.14598332316150e-01
1.60685444401086e-01
9.78625579683555e-01
7.70871740186377e-01
4.65138273817664e-01
5.24079229424778e-01
2.15597650136929e-01
3.42398977074059e-01
6.14814933012606e-01
2.50125677405056e-01
2.91131576987637e-01
7.06962283248941e-01
1.35215610856188e-01
3.40173134825044e-01
7.43320483910207e-01
4.27127108700390e-01
6.07665420191848e-01
4.58486580795949e-01
7.47066719564695e-01
8.60228691791074e-01
8.69574993406005e-01
6.83070096135256e-01
4.00753870383085e-01
4.19789639512901e-01
2.79990889088653e-01
3.43442724643876e-02
9.95616138129387e-01
6.53762113653772e-01
1.19485513157412e-01
4.87371995149631e-01
2.97297304241192e-01
3.59369705681740e-01
1.50693903503216e-01
3.06926138545391e-02
3.48618480846667e-01
2.49580502255647e-01
3.83050784524529e-01
9.97758648373888e-01
9.77139473956321e-01
8.73724566796886e-01
4.66350237503398e-01
7.14725427135605e-01
5.58026388215248e-02
9.16495411339369e-01
9.40741289519957e-01
3.65367055278494e-01
8.49701002154188e-01
3.65985856255846e-01
4.52225075679550e-02
8.86868587301676e-01
6.09911195081075e-01
7.49929339350266e-01
5.05006785318723e-01
3.69307765627844e-01
6.83285303212869e-01
7.83083699092036e-02
6.99604947086360e-01
2.80315560217423e-01
4.41367362997923e-01
8.24058264011084e-01
7.23996741110021e-01
9.25925353044925e-01
3.21218325103586e-01
5.76954958153961e-01
8.73274658706989e-01
3.15913390302747e-03
8.82541167287482e-01
7.66544548354036e-01
6.53300863673565e-01
7.07071699392443e-01
7.55754283555329e-01
5.44244105604369e-01
9.91272623354294e-01
4.92546951107307e-01
8.72198109684482e-01
8.97502047378422e-01
2.75879738129405e-01
9.54449002259301e-01
3.60164114672652e-01
2.93358084838818e-01
7.46019312672781e-01
2.89513120902736e-01
8.22280571449270e-01
5.06026451362159e-01
3.86349928923065e-01
3.63287312444687e-02
8.33861029470416e-02
8.52746652210556e-01
6.49159165761574e-01
5.88808035328907e-01
3.39125503552970e-01
2.06409622349120e-01
6.29571319942909e-01
1.84724560539487e-01
7.11794269517553e-01
3.87618894096621e-01
5.84818997369820e-01
7.67141840593251e-01
6.86693806776406e-01
3.68515243766376e-01
5.46501578983630e-01
5.44364239493995e-01
4.36733196715777e-01
2.38867698273865e-01
4.22975677438020e-01
6.08955930767171e-01
8.87508690757200e-01
2.26445466526717e-01
1.85421699281094e-01
5.33840223116405e-01
8.74668069478944e-01
2.62692614288438e-01
8.54390552314131e-01
6.34740347448710e-01
2.30701421531163e-01
8.17637470304105e-01
4.66268637516241e-01
5.96711343860183e-01
9.21033818282732e-01
6.70077459014815e-01
4.17815443780662e-02
7.90083191581562e-01
4.06768798837066e-01
1.52430717438835e-01
3.91994479382374e-01
2.73762157974694e-02
5.96991380496038e-01
4.95754449665590e-01
2.97732480945881e-01
5.35422414249643e-01
9.22555758185982e-01
3.70834171144231e-01
3.86429613370613e-01
9.73262298481509e-01
3.62858381421094e-01
8.69068780885879e-01
8.72936614773844e-01
9.39605762023720e-01
2.56172013060514e-01
8.63412720499234e-01
9.08377010918372e-01
6.20001294543859e-01
1.24231398713260e-01
3.00119338573287e-01
8.55145437671319e-01
6.36485344917089e-01
4.26507540418711e-01
4.48400724215130e-01
8.17132996662934e-01
5.98924776991872e-01
1.50882006767043e-01
3.84014713751974e-01
9.75169070750359e-01
5.62341241072745e-01
2.16589636436464e-01
1.36847152009562e-01
3.49031545322307e-01
4.35834667318782e-01
9.07338521283401e-01
9.01285579923012e-01
1.92069431114004e-01
1.82977205502348e-01
8.96009320204442e-01
8.43360332346654e-01
7.72119231489171e-02
3.39254076047058e-01
9.73457727394591e-01
8.49467852666864e-01
7.88797155319661e-01
5.06310248464995e-01
4.23162948094702e-01
5.40445250008440e-01
3.66955207301538e-02
3.12802473503246e-01
1.03487476531143e-01
5.29279908551720e-01
6.42515301059141e-01
5.52823932769179e-01
8.37291501074345e-02
2.77706101417936e-01
1.85205929035907e-01
6.41100104373546e-01
4.01645242504525e-01
4.00064246125665e-02
8.07570855038618e-01
4.02024922916266e-03
2.26150950978230e-01
5.68549346007940e-01
3.25383711217821e-01
5.62207123745344e-02
2.61619880988423e-01
7.51091451719864e-01
2.63401426906462e-03
8.37508943487707e-01
4.78815858354191e-02
3.83282704308215e-02
4.93912992540602e-01
1.26725305326215e-01
4.41327525033131e-01
1.38750671863590e-01
8.25524770437749e-01
1.97783249387884e-01
2.43301927552275e-01
8.62473919651031e-01
2.35040711988116e-01
1.45348187933926e-01
9.23034783674682e-01
4.62637369256161e-01
3.22801217401565e-01
8.65399590665719e-01
9.80741591293082e-01
5.17426748401462e-01
6.94751363540617e-01
6.98176170537073e-01
6.07710232076920e-01
2.66716806064341e-01
2.55127026607120e-01
2.93480778435314e-01
1.03054665225675e-01
4.13528442798696e-01
5.53100899261929e-01
1.35384453642696e-01
1.51861763531578e-01
7.29456025205265e-01
2.61434965930509e-01
4.63042823449441e-01
2.69801305779782e-01
3.58374003456148e-01
6.22192465222302e-01
3.37008388996576e-01
3.62776236690147e-01
3.62044681057427e-01
3.74844369639283e-01
5.46920798933335e-01
7.53174908984770e-01
5.24466469235395e-02
3.15645426983402e-01
6.65676027117338e-01
5.05140134875942e-01
2.42289255396913e-01
7.31743843785721e-01
2.69989857393398e-01
7.98959018974767e-01
4.46261812851679e-01
1.08165258699550e-01
4.42971216498117e-01
3.60765635451801e-01
4.29709547120288e-01
8.82185792881439e-01
9.80681872715250e-01
9.87375901475172e-01
4.47466657451714e-01
2.31450197369200e-01
9.87535153029424e-01
7.11540107950418e-01
5.20881820917282e-01
3.97579169292992e-01
2.69249244680794e-01
7.45620920428635e-01
9.56847939673639e-01
6.18375310318727e-01
6.32373622392802e-01
5.96221353179167e-01
3.68734997953170e-02
4.58072147309040e-01
8.60413650017243e-01
3.10102825305743e-01
7.43706750817182e-01
8.90896848175376e-01
8.42029006368030e-01
9.05108010754490e-01
8.31789544270789e-01
4.71149490716350e-01
5.95295531126789e-02
6.86494426568781e-01
3.09683968414399e-01
7.39209636693095e-01
9.97220918552512e-01
4.53927619362679e-01
2.06082218575524e-01
5.42321383778603e-01
7.67234367979419e-01
1.27853712267922e-02
3.28829465148437e-01
4.58544323654558e-01
7.78513571588201e-01
2.51134191176798e-01
9.10393027704037e-01
1.19385305553577e-01
9.65815166607628e-01
3.45941027161504e-01
6.56237262766989e-01
2.82330102671668e-01
8.71616752224576e-01
5.43479432857431e-01
7.80089272802025e-01
4.03932029503145e-01
4.35685035188328e-01
1.29754021242364e-01
8.07604901593081e-01
8.56920745475805e-01
6.98629515677296e-01
5.11728618819666e-01
5.72025143978810e-01
9.77423057808987e-01
4.53940217435802e-01
6.35991101618094e-01
3.95229847770280e-01
5.06111691114916e-01
3.13993901981997e-01
5.82184953317595e-01
5.65428517423044e-01
4.08723277793419e-02
6.46666594462199e-01
7.85185886737991e-01
1.04808131304793e-01
8.73625867936243e-02
9.05907173111528e-01
2.58894544973719e-01
9.52491782268885e-01
2.26106845222637e-01
1.75206420614066e-01
6.95346964379293e-02
4.47897027706035e-01
5.40156682261052e-01
6.39851196895932e-01
4.24852619215075e-01
9.81984735256015e-01
2.87340682507796e-01
5.08749235687216e-01
6.48794015641429e-01
3.11941409918086e-02
3.94663345434149e-01
8.74151847216437e-01
8.09318711735235e-02
1.09902813360140e-01
6.80993140301633e-01
7.14482460267949e-01
8.38738753510611e-01
5.08759340024962e-01
1.76362112756989e-01
2.21052234613574e-01
8.33271547934935e-02
8.26983329870960e-01
4.83961075641667e-01
1.41431924415885e-01
7.11837764911623e-01
1.57787672475532e-01
1.39298464074585e-01
5.91571512830682e-01
3.71714791769777e-01
6.03145496653176e-01
8.25663334635793e-01
5.17920017371498e-03
2.36160538034141e-01
6.85419078596180e-01
2.21701447134019e-01
6.52003535396604e-01
6.43588708940141e-01
9.60340548619280e-01
4.49334022505941e-01
2.07359948781494e-01
1.56035877617203e-01
7.48402726575011e-01
1.66048592360287e-01
2.06049029234499e-01
4.39581763960590e-01
1.33056102096872e-01
7.05870343731651e-01
7.06528879610098e-02
4.57123589975564e-01
3.51631070757009e-01
7.75794307157445e-01
1.76334516424973e-02
4.43938324806706e-01
7.03526552177391e-01
5.23248055529658e-01
1.16420968315498e-01
9.96104959974769e-01
1.22856666612560e-01
9.62898782227704e-01
2.80342516009837e-01
8.20260047565309e-01
8.13943760153436e-01
3.23656716953840e-01
5.96101318161213e-01
4.66424002955390e-01
8.04905934279329e-01
9.85318308697772e-02
5.88110293190450e-01
5.62844861456903e-01
9.87370728710632e-01
5.33322813013023e-01
9.38233120300510e-01
6.14758264473455e-01
6.94211690770796e-01
4.48519516512486e-01
1.49632172850500e-01
8.34814660354784e-01
2.42974452922450e-01
2.55229010538495e-01
8.56331024726926e-01
8.35220842975177e-01
4.20090812910363e-01
8.12960724289700e-01
9.03328419849657e-01
7.06768228957175e-01
5.78903611887268e-01
5.17763306956567e-01
7.46323634410687e-01
3.63821492515361e-01
4.38168466152680e-01
9.42763899524534e-01
5.48608047000897e-02
1.95689979779769e-01
5.14873292141730e-01
5.16459152104280e-01
3.73285497186454e-01
1.00424876820911e-01
9.68417371078924e-01
2.49859855093725e-01
1.36261316919487e-01
2.06951688313673e-01
2.68847637512001e-01
3.81767102613896e-01
5.45200740552955e-01
6.25299629838130e-01
6.30764479114363e-01
1.85134613192737e-01
9.49324197097701e-01
4.21602551244540e-02
2.80691140356762e-01
7.78392445565119e-01
2.49389948705822e-01
3.50635338080755e-01
3.51285656684520e-01
8.28438857000809e-01
2.76888000480091e-01
4.31527314567264e-01
4.45799858363378e-01
4.92670127669554e-01
6.46165555734984e-01
7.12945688114308e-01
4.49346106072033e-01
3.10354886889144e-01
6.91034214422809e-01
7.69179999038943e-01
5.62394692987881e-02
1.31368461729570e-01
4.51614864355980e-01
4.21068813978559e-01
9.66842346605681e-01
9.29118760729812e-01
9.45946863680912e-01
5.69814875834985e-02
2.51158128167362e-01
8.95085949670771e-01
7.04649053713878e-01
7.09368945936890e-01
5.97527640271897e-01
4.52058377053111e-01
3.17103781236189e-01
2.22657463991800e-01
5.11204073504560e-02
9.52138220653769e-01
8.65464624920006e-01
1.66099032900938e-01
2.44665720031959e-01
1.82480797364909e-01
8.44501197781569e-01
9.16059546217226e-01
3.11943306698674e-01
4.61744036530870e-01
8.02233121430278e-01
6.52626278564200e-01
9.37764143279585e-01
3.19829756391359e-01
3.76371009450791e-01
7.77481337595828e-01
1.11979548197702e-02
9.48552684355266e-01
3.93172157247787e-01
5.58448860670985e-01
8.91702585772085e-01
6.02012432757048e-01
3.76084893540452e-01
2.15045127535866e-01
1.56043328266397e-01
6.68777110603848e-01
2.53619953082007e-01
8.13879567658797e-01
6.95157403427598e-01
9.09669408808164e-01
7.19763968393071e-01
2.40387225097349e-01
6.04165531588517e-01
6.53224450645490e-02
4.42333606919745e-01
6.36821368221751e-01
8.44688781539085e-01
1.08276554385962e-02
2.25076510230894e-01
8.32586015348729e-01
6.87048494895460e-01
7.70647748610533e-01
1.65782169087739e-01
4.08962745178240e-01
6.44278657538401e-01
6.92603821215953e-01
7.38733271706559e-01
9.30582820365160e-01
9.36606297918495e-01
4.50824283676097e-02
3.29353435885607e-01
1.87781963017769e-01
9.17508257781307e-01
7.02733219952939e-01
9.72268477913754e-01
5.31713444783824e-01
9.51369833278803e-01
5.29376212104497e-01
1.29936322610274e-01
1.65417340511561e-02
6.19967448771440e-01
7.13910471261229e-01
7.69217058751011e-01
5.17072431629972e-02
6.20829019219042e-01
8.81535587549063e-01
2.41987158822971e-01
2.90529363313662e-01
2.14171396043477e-01
3.08005073601549e-01
7.79896185566621e-01
9.40406251899682e-01
8.66856881775528e-01
3.41837303779488e-01
5.30949970764163e-01
7.94242091066609e-02
1.05196339216901e-01
3.36305367187755e-01
3.44633594319783e-01
2.97522237093014e-02
2.90995221367243e-01
1.69344040378450e-01
4.81984244797260e-01
7.04951285612898e-01
7.43705026347453e-02
8.99258295242039e-01
8.68594808827583e-03
4.54520348617428e-01
9.45891127921266e-01
2.72435705851648e-03
3.65472063107927e-01
2.75175376675876e-01
6.86342731707062e-01
1.98453648594941e-01
3.52246200620047e-01
1.56192817394780e-01
9.72146378365339e-01
5.59269886180890e-01
5.90249548028682e-01
1.80053706960007e-02
9.29790268251197e-01
1.29425174436164e-01
8.09078764824936e-01
4.93220475687767e-01
5.64953835619429e-01
2.73962672920047e-01
5.78795742708752e-01
9.68614595071429e-01
1.01425208178248e-01
1.29648988760527e-01
3.16920040883955e-01
7.44374849653921e-01
1.79973100272169e-01
3.64519999625035e-01
1.52753292635154e-01
9.25955343739669e-01
5.01355100597741e-01
2.13786684162561e-01
2.86472503551865e-01
2.20006542983274e-01
2.84619580121288e-01
5.46992593480514e-01
5.72005802599489e-01
8.57983574262794e-01
1.57942531813678e-01
9.66334652915315e-01
5.01568619283810e-01
7.67345317463865e-01
5.43029184731633e-01
1.91242384399988e-01
1.40983616044077e-03
5.67415674678889e-02
5.24140558011570e-01
5.89058193455764e-01
7.40921788502837e-01
5.58363049238750e-01
5.74135839276344e-01
2.54812321241571e-01
9.73653391479925e-01
8.65557446687941e-01
9.74508703236118e-02
9.26051351552991e-01
1.98737383896877e-01
4.65280418916547e-03
7.31485214039407e-01
4.85856358541345e-01
9.91077336847351e-01
1.14119772680898e-01
9.17119399689382e-02
3.81830417268647e-03
1.94327694717759e-01
8.70218840218158e-01
1.27395449881875e-01
2.40185286446273e-01
1.17958853401801e-01
5.71136565609098e-01
3.74910065370592e-02
6.05570306582639e-01
3.83523977545546e-02
2.08792493391981e-01
1.35154183404709e-01
4.86529703235239e-01
4.76812090192747e-01
3.88834644065470e-01
5.06994175287199e-02
5.11880662002713e-01
3.87752449161049e-01
7.08266002767249e-01
5.37326943708192e-01
5.05990015513032e-01
3.78648296212608e-01
2.43434641771105e-01
5.83422928373189e-01
8.75881139816910e-01
9.02878301390814e-01
1.72577862256394e-01
8.96745497193938e-01
9.50373637407505e-01
5.55655129503656e-01
3.53437635036758e-01
4.67091708379599e-01
2.08599979721769e-01
7.65943958058830e-01
5.17031893550914e-01
2.26967976146671e-01
1.12304259653089e-01
1.84470475661490e-01
4.17458831944734e-01
1.50224683844981e-01
9.31007676050429e-02
7.30100433869956e-01
3.78696451661202e-01
2.23919368662905e-01
3.86728155410182e-01
6.36168468181867e-01
3.52507552635789e-01
9.99630725399916e-01
6.58382898060046e-02
2.45912412753649e-01
8.95011281755822e-01
6.19489994459749e-01
4.81975440684509e-01
8.16453936700131e-01
1.12295958447657e-01
2.52924184848462e-01
2.61738783745870e-01
4.96977501006500e-01
2.55123636353211e-01
8.75654457292518e-01
4.69447868117542e-02
4.40612834701673e-01
1.94975592718664e-01
5.68588182816295e-01
2.62507632415751e-01
8.96013898926755e-01
2.61727174495479e-01
5.23314740898241e-01
7.33329076324680e-01
8.07620102857817e-01
2.11035771404581e-01
5.34338355934386e-01
5.96739750641092e-01
8.52584812259150e-01
7.45426627342126e-01
4.99053709279614e-01
2.34705785332556e-01
8.69089235764925e-01
8.95169439617383e-01
6.79130424239873e-01
7.65211454825482e-01
7.21295883597068e-01
3.64846432286653e-01
7.99416920841459e-02
2.67828206427099e-01
2.81433486603527e-01
7.18629489179500e-01
4.23935694591492e-01
4.34745001209102e-01
4.87847312854048e-01
1.27800357979127e-01
5.87809885643003e-01
8.01331952606178e-01
9.49943299237412e-01
4.61710910107426e-01
3.05000628409249e-01
9.18481421294833e-02
7.15895282037382e-01
6.85890006309651e-01
9.27447117745779e-01
6.97992408692824e-01
5.91868114892743e-01
2.15414875323995e-01
4.24391435422611e-01
9.68778201917913e-01
3.89339881050446e-01
5.55663619491676e-01
1.74854481755610e-01
3.12238020584184e-01
2.85122633745879e-01
2.77360550412945e-02
6.51656937723460e-01
8.16358590308380e-01
3.51252910636614e-01
5.69297827390763e-01
9.94337507314113e-01
8.06838958334115e-02
2.75663088006597e-01
2.84931770487593e-01
6.87325869869457e-02
6.22408453983169e-01
6.41190985426324e-02
4.85780765986679e-01
4.48228117733985e-02
7.96499124242311e-01
5.64250834595116e-01
9.97620086453149e-01
7.61728704521269e-01
1.21125939088021e-01
2.01961734845435e-03
9.05326848842250e-01
7.01684882929739e-01
6.20753969008594e-01
9.67258756129252e-01
2.82006697859094e-02
9.58858681481751e-01
3.35072484973138e-01
1.72955819818476e-01
4.92369618209528e-01
5.71927328040580e-01
7.10174321253554e-01
5.99737982008798e-01
2.08266225247104e-01
4.91378039705639e-01
2.94603353477490e-01
1.19677416398394e-01
3.53068376916074e-01
7.68289689589347e-01
1.16427137581901e-01
6.34080992106000e-01
2.01980955055248e-01
4.26284675654594e-01
4.25074207817160e-01
2.03073299389061e-01
4.95182287629859e-01
7.35360986822012e-01
2.13269528681724e-01
5.91450006310704e-01
6.24565191517843e-01
6.52941200170436e-01
5.89675027999547e-01
6.89172897161146e-01
3.44815840221560e-01
3.61618108596309e-01
5.76598448373123e-01
8.92755136280173e-01
4.62655267285649e-01
6.43435835966322e-01
9.71436733102868e-01
6.68362780849197e-01
4.99121973692090e-01
8.95285107443592e-01
5.08947336649298e-01
8.28152293967871e-01
1.79476303069553e-01
3.32294401085038e-01
7.84871817215313e-01
9.96535806904182e-01
7.55680232096349e-01
4.98535105595259e-01
9.22171162830408e-01
1.42184159044849e-01
4.77233315165033e-02
3.17616244081235e-01
8.73391466156054e-01
4.18068828893498e-01
5.59914496280098e-01
4.83799614844987e-01
4.30997571634323e-01
7.23874924796871e-01
7.30410533014165e-01
3.33450869024644e-01
3.13092235462572e-01
1.05400359054170e-01
3.99739055969028e-01
9.49613607858515e-01
1.41706325260853e-01
2.67426505901948e-01
7.44056856997539e-02
4.55028601368287e-01
4.17786511444901e-01
9.49149270854002e-02
8.47240158850868e-01
4.85618563070136e-01
4.35891206194637e-01
1.76852050057186e-01
9.88281803148802e-01
5.45798987972144e-01
1.23426884517623e-01
9.67424310386892e-01
6.69072350305465e-01
6.17454178470843e-01
5.97059693284374e-01
3.47721853419869e-01
6.15789122847589e-01
1.37795088075890e-01
7.09716629301240e-01
3.62809147425111e-01
5.21777309199119e-01
6.50576444862664e-01
7.43990066446332e-02
6.35313293640394e-01
4.92243575200170e-01
2.98202999916443e-01
9.99525013906478e-01
8.26335608813619e-01
5.22762059114859e-01
6.47721694040988e-02
7.33508170196029e-01
2.86310454714684e-01
3.74975814559979e-01
8.25759290936715e-01
7.29553554580849e-01
1.38209178538336e-01
1.01270930887608e-01
9.50057544987559e-01
6.40543665973386e-01
8.17797816200474e-01
4.38418035617105e-01
1.04528834133456e-01
6.77992690128378e-01
6.47112916400387e-01
6.73254306504038e-01
1.70381268468436e-01
6.94985877192072e-01
9.76656621082125e-01
1.46468071388311e-01
3.28688477860425e-01
4.83497186836016e-01
3.32681421348929e-01
1.00042822440914e-01
8.54600771980613e-02
8.54344145362783e-01
4.56457865465743e-02
4.83748486381703e-01
6.52535888856223e-01
9.49993748391365e-01
3.56822460644194e-01
4.77956663759151e-02
2.19151511764268e-02
8.73962903488895e-01
2.95848698327278e-01
2.02080215373384e-01
6.67167876424280e-01
1.93159113147114e-01
2.44233499899011e-01
3.71610927918707e-01
9.21156349886019e-01
6.28271645819334e-01
1.24363670621617e-01
8.42275058178990e-01
8.93772363054566e-01
1.71594504756314e-02
2.60754700194584e-01
5.39671956818870e-01
7.55057861309161e-01
8.42490794297185e-01
9.13724753929823e-01
1.11195410493183e-02
5.51046498335630e-01
3.79117375889168e-01
2.59710652508565e-01
6.58787294927204e-01
1.33743533712165e-01
6.40331865069453e-01
1.81332249972833e-01
5.84009848781992e-01
7.40216818798461e-01
1.34658320030652e-01
9.09186445925957e-01
5.28183331266830e-01
8.08679858294097e-01
7.69248105017989e-01
5.19726394338927e-01
3.38676622489278e-01
9.38356816904882e-01
7.70423926120282e-01
9.69522448341525e-01
4.69663666860482e-01
3.69774506174885e-01
9.42872128121539e-01
9.73006063484401e-01
8.07422761371810e-01
7.80338243121143e-01
1.32859574072975e-01
4.51343190749649e-01
2.94109874093406e-02
2.34547477577388e-01
1.57630381769101e-01
5.89569290275350e-01
5.61770394115243e-02
3.08691577268028e-01
4.48331551888261e-01
7.36056047344730e-02
9.79174517482899e-01
4.01014586044276e-01
8.50566352582625e-01
5.17721437303507e-01
7.35277055162607e-01
8.90891608356818e-01
2.35132366515902e-01
7.09958916524227e-01
8.02582518776789e-01
1.95877181674702e-02
4.97611414202173e-01
2.65243207125620e-01
8.58032232092681e-01
3.38124189547464e-01
1.05223003617147e-01
9.41061841753415e-01
7.00911160252169e-01
7.70154159706518e-01
1.79703318058166e-03
8.54479557488744e-01
6.34970844602113e-01
7.13632128615593e-01
4.07806726213360e-01
3.08996652918988e-01
2.40624911265237e-01
8.71760263691271e-01
9.44809177466272e-01
4.62558606410091e-01
5.45966789778670e-01
8.81582308075427e-02
9.45125185842735e-01
2.08648591988795e-01
8.66336118076080e-01
7.23838838099656e-01
5.63816006406039e-01
2.40708170217664e-01
8.17550483143422e-01
4.96023323600799e-01
6.96502733527647e-01
6.58438713484552e-01
5.94143381855219e-02
2.22648516398945e-01
6.77804865614525e-01
1.39862820427664e-02
8.98806522391902e-01
5.40472129017430e-01
4.51080247311172e-02
1.58917084414036e-01
3.48664966680889e-01
5.86137504482966e-01
4.42864829235660e-01
8.18482582312614e-01
3.44257681287315e-01
8.97489669116213e-02
1.28959596926050e-01
5.24567785211166e-01
5.31777495718225e-02
3.36141219084697e-01
9.74863774916691e-01
1.23336871334510e-02
1.65113547106793e-02
2.52463951180191e-01
3.43455973547210e-01
6.45544673233204e-01
8.07001638275200e-02
4.74217515616524e-01
6.91113252885723e-02
2.61119550085623e-02
5.96263921847429e-01
1.71016847548056e-03
7.64326286140608e-01
3.42941786587671e-01
1.91311227616888e-01
8.10673219673370e-01
9.64009811703036e-01
5.45377023921502e-01
2.10013962609579e-01
7.29408943873781e-01
6.63905604498504e-01
5.82269959930544e-02
5.61219473269130e-01
5.86567392437303e-01
8.23867821627674e-01
5.99428198523841e-01
7.40245760754078e-01
7.57038180046759e-01
7.34085889006476e-02
9.02861458878327e-01
9.80420057338953e-01
1.82279302423802e-01
5.94401264382728e-01
9.41709693836715e-01
8.51652445250660e-01
2.90753150034141e-01
3.36371238800355e-01
1.35906646803415e-01
7.60015222294018e-01
1.80970567291484e-01
3.30976631789417e-01
5.55165106871351e-01
7.64418244997956e-01
6.22316947513240e-01
5.06948734302069e-01
7.76240287661556e-03
1.79803805978673e-01
6.50423286826521e-01
9.94361696024212e-01
7.76225035158809e-01
2.06740092960251e-01
7.30999531855577e-01
2.81151816716360e-02
6.64089965964432e-01
1.84595568580490e-01
8.95043805404299e-01
5.98188035209571e-01
6.88850270691703e-01
3.11649171259101e-01
2.09109672498418e-02
6.59055054071458e-01
7.27950124993089e-01
2.76966914358193e-01
4.93762133515261e-01
2.19531767822666e-01
3.64613869470371e-01
6.84204223592599e-01
2.22179285558405e-01
9.62627731624924e-01
4.06352063263028e-01
6.73711865356463e-01
5.06439698483996e-01
9.80875989524422e-01
2.65019030119715e-01
4.29172028763808e-01
8.99143814675794e-01
6.67303650601646e-01
8.11502634169165e-01
4.74692461419682e-01
1.40755776744022e-01
7.80146327455249e-02
1.61093148397471e-01
7.14528842635954e-01
7.16365103369153e-02
6.60986493169073e-01
4.79458912169305e-01
2.85986191043343e-01
4.07579954551117e-01
1.30270987062964e-01
5.77652691623322e-01
2.21997853149171e-02
7.42078472954063e-01
1.12708188513034e-01
5.65824309447252e-01
2.00131540859017e-01
6.47330587216853e-01
5.69096856998873e-01
4.90886905373980e-01
2.62801013016983e-01
9.72660472868543e-01
4.51067198741571e-01
9.29988971983938e-01
5.04487006004918e-01
1.95066978767519e-01
5.68010974909515e-01
5.16430279251029e-01
7.90048140319683e-01
3.87655445768452e-01
9.54517556822706e-01
1.48388918099129e-01
1.51497589416599e-01
8.05026532944270e-01
1.72355388997817e-01
5.42652556274681e-01
3.60643795389422e-01
9.94626053939516e-01
5.40617631013188e-01
3.73658312465473e-01
7.79366980935892e-03
4.56076123142821e-01
3.39846645635923e-01
1.05106637942972e-01
6.61168146401445e-01
2.47780685054912e-01
3.93449606132999e-01
9.18728685589946e-01
3.48354236198013e-01
4.16216730012273e-01
4.91489612247401e-01
9.81051711316100e-01
8.92411798587950e-01
8.07695545500801e-01
4.68428882871005e-01
5.85972455497015e-01
4.99994936697612e-01
4.16285579660516e-01
4.26090422559468e-01
9.83374991347553e-01
2.23371588508436e-01
9.97417177144299e-01
5.35920203080574e-01
8.56845150049588e-01
8.62469073513398e-01
4.26474536390993e-01
9.95374092296853e-01
1.08742635199468e-01
4.44466786707507e-01
6.35992631241886e-01
4.39324900020079e-01
2.94696431608465e-01
1.82880870661368e-01
2.99805446602509e-01
2.47837745110251e-01
9.77262366298546e-01
2.28500225996105e-01
8.64282451542852e-01
4.60932768340931e-01
5.20057743266958e-01
4.01747069713275e-01
2.72474103166311e-01
2.78157904743370e-03
4.14488361316076e-01
9.13604432159176e-01
8.03759741777919e-02
3.61804118877070e-01
7.82345501715720e-01
5.72751022267847e-02
2.84879428357118e-01
6.37008354237564e-02
5.63463322938740e-01
3.94939770952716e-01
5.65047868924179e-01
2.05747050748859e-01
6.03607652022396e-01
5.44054172139388e-01
8.07581223962705e-01
5.60573811692900e-01
4.91619052813828e-01
9.35016637120678e-01
1.78931888126084e-01
6.10811562186539e-01
8.17801290373436e-01
3.06121810910799e-01
3.12490482814150e-01
9.51095396945384e-01
9.09862957953074e-01
9.97824915453631e-01
2.53118892563174e-01
3.07095761586579e-01
7.32436823007295e-01
4.35863558602299e-01
2.09305112002417e-02
5.85152189779203e-02
5.08324821680341e-01
7.46451146960220e-01
8.74293407656210e-01
9.17861515085523e-01
5.33682425461508e-01
7.30362996382707e-01
3.24070668846815e-01
2.34131424294544e-01
9.61189294476161e-01
3.18947624616656e-01
9.74513878206190e-01
3.19010396830808e-01
5.81528870125577e-01
2.16881704651438e-01
7.29668179870601e-02
5.25844608728784e-01
5.64342464818815e-01
9.67930057230666e-01
8.89288209742478e-01
3.70172530071765e-01
2.40186496946530e-01
4.11329449045792e-01
4.44201247543452e-01
8.67100501057212e-01
1.05343313681003e-01
1.22956145552169e-01
4.50204952763360e-01
8.51060667337508e-01
4.48792853136950e-01
4.32285287303159e-01
9.21717804681077e-01
2.47006446884419e-01
6.25477909021078e-02
9.85543427217058e-01
8.05683995476997e-01
8.16994589917353e-01
6.46889237839720e-01
6.55493556181186e-01
9.35733836269542e-02
9.95548201558908e-01
8.65893854335783e-02
4.36582030623052e-01
9.11275148135130e-02
7.32520470554898e-01
5.10091895948661e-01
3.31953427996666e-01
5.22005974433934e-01
8.05278390153559e-01
3.79254714032567e-01
7.19886292664129e-01
1.79292230776346e-01
4.13265122862790e-01
9.26238556212194e-01
3.35229834969475e-01
6.01584961467520e-01
3.90826902289095e-01
6.68590271639484e-01
7.10545881291112e-01
2.19860913644514e-02
4.25412700691397e-03
4.35289883620933e-02
8.48380058618975e-01
3.86584226864870e-02
8.74272995234211e-01
4.11493342738452e-01
5.33416697679120e-01
4.94311786017766e-01
4.22967586330860e-01
2.65733295448949e-01
2.05734992307386e-01
5.83169377266291e-01
8.98811253261507e-01
2.54428962465036e-01
5.27356023918995e-01
1.79238325232787e-01
1.65257725102786e-01
1.37804813309053e-01
8.35997346618274e-01
6.36265324341540e-01
6.04936534514923e-01
5.01477164873295e-01
4.72989167923643e-01
7.30798426883844e-01
5.12396941812913e-01
7.04975334264830e-01
1.99751726367426e-01
5.90077777746447e-01
4.80480443159284e-02
5.31873956990645e-01
4.09396382754601e-01
4.19327010636418e-01
4.64697071364216e-01
3.81380535930689e-02
6.37770663769519e-01
2.96689885197114e-01
2.30179666587835e-01
7.61585605533935e-02
4.74959711074766e-01
4.69199704798328e-01
1.47315666026292e-01
6.63983193615211e-01
9.35496626681235e-01
2.94514757213301e-01
9.77415332950159e-01
4.57172828413316e-02
7.20305867916829e-01
8.69949779971281e-01
4.25671796974359e-01
6.44378834788365e-01
9.40001687124400e-01
3.78325632444688e-01
3.92770493799494e-01
2.48259336504608e-01
9.19785441762167e-01
8.16252357240799e-01
4.16218203202404e-01
7.06965720884933e-03
2.93338560760557e-02
2.39585766323509e-01
9.27812885563235e-01
2.92076726982780e-01
6.24881081581767e-01
8.51778350990589e-01
2.45634333895191e-01
2.38259402468852e-01
5.24028396921322e-01
4.27890325434577e-01
9.56909885933150e-01
2.06262160175669e-01
7.44651388296685e-01
3.83275585184754e-01
7.22210773729286e-01
4.25807140669371e-01
8.55185580414692e-02
7.40214781584683e-01
6.15668108233076e-01
6.60761122925707e-01
5.48405826460247e-01
8.63728788791232e-01
5.14743395661550e-01
1.45919960891623e-01
5.89264487313417e-01
3.78184558601840e-01
7.65267445413456e-02
6.72405205197571e-01
7.65417809209560e-01
6.83616645088868e-01
3.32589502589211e-01
9.26876032159991e-01
2.02862488406557e-01
1.40129401229728e-01
3.38056291852319e-01
4.39601442165603e-01
7.63782184041567e-01
9.95022571122410e-01
9.37447174996036e-01
5.19223674389789e-01
3.17040586913094e-01
9.20815655636162e-01
2.74404421697936e-02
9.21848622011457e-01
8.21799337877819e-01
8.85232895443310e-01
8.71407246604125e-01
2.42680470635308e-01
7.20695009892121e-01
7.36102551695580e-01
5.78658162922355e-01
3.00141084592090e-01
4.77280989904750e-01
5.32486015702450e-01
5.94112738948728e-01
1.78231718036394e-01
5.50030259168400e-01
6.62569903068712e-01
3.92637812099925e-01
9.52023426356574e-01
9.33262875610841e-01
7.54613385509979e-01
6.66309296916597e-01
5.24893637379339e-01
5.56165438791179e-01
4.15880687677094e-02
4.35405879370148e-01
1.36575235154709e-02
5.39075216257442e-01
5.16794343200600e-01
5.09830388647463e-02
1.72399103267407e-01
1.84915066734339e-01
7.16688465548420e-01
7.23230284998549e-01
1.67124911068514e-01
7.39346734354052e-01
9.13022035404721e-02
2.75384653189536e-01
2.96156733588680e-01
3.75362267652417e-01
9.43290223617001e-01
6.39585120747457e-01
5.93999095222900e-01
2.85514207317051e-01
5.99423114073801e-01
2.39857992939775e-01
9.37674308002509e-02
9.19289385946517e-01
2.04652013190228e-01
9.08073475724322e-01
7.25920458445325e-01
9.19101826541812e-01
9.22151738206134e-01
2.03142923837252e-02
7.90536108947059e-01
5.83037747867106e-01
2.21800597998404e-01
7.22394474416660e-02
1.79066597353216e-01
4.74233733659830e-01
8.08247281248643e-01
5.61018670176636e-01
8.27373521270975e-01
1.02934016708696e-01
2.16452958112731e-01
5.55504287889577e-01
3.97741498569285e-01
3.17447132822180e-01
8.67286560162753e-01
5.17047507283890e-01
8.06841335232991e-01
8.40598316302111e-01
2.27841562372065e-01
3.73916147465999e-01
5.36229684005230e-01
9.86002550258155e-01
4.53853732664564e-01
8.51066099858069e-01
1.84540700500905e-01
6.61270803558759e-01
8.17380765704887e-01
8.93682320230359e-01
7.46502453451628e-01
9.40598417274430e-01
2.26568038013944e-01
6.35491327185731e-01
1.76156154754853e-01
1.01249890453518e-01
3.69273361829604e-02
5.34404973808292e-01
8.58268878192601e-01
3.35875384279956e-01
1.00460790691427e-01
2.12641481586388e-01
8.58359356401600e-02
6.37546052458401e-01
4.96750753419848e-01
9.03049422406911e-01
1.33758399226083e-01
7.75635347776052e-02
7.30109156085505e-01
3.52011015961196e-01
9.67215559067319e-01
3.02671600112247e-01
8.90109025236031e-01
7.59938722035706e-01
9.74643050556206e-01
9.06430423395351e-01
3.80102949075299e-01
1.81242278478860e-01
1.80028361749708e-01
2.09765536606301e-01
8.43773479682498e-01
2.61105722699971e-01
8.88661162690063e-01
1.20311678197786e-01
6.49502553397472e-01
1.91853646921594e-01
3.56566348318712e-02
9.59544521497800e-01
5.66679764136206e-01
1.78744989294715e-01
8.31177151161322e-01
9.11795573103994e-01
9.93232680398633e-01
3.58454046364315e-01
9.68381979004849e-01
2.07753833391949e-01
1.64445621622152e-01
9.80062986801181e-01
8.03435744165001e-01
3.29959419818646e-01
7.62024120062267e-01
9.79644500196494e-01
9.00354215315671e-01
2.90935887020977e-01
7.18491986876876e-01
6.95342841644327e-01
8.12084031630332e-01
9.38619225045680e-01
3.63158637828265e-01
8.48777430323227e-01
2.46210812710725e-01
2.85607617667021e-01
1.85007285851838e-01
7.70287563105944e-01
9.39344312840529e-01
9.54314103042225e-01
6.51844313243241e-01
6.69398442803862e-01
8.88690725605745e-02
5.99417744522404e-01
6.90120283819915e-02
2.72227065707264e-01
9.68962897103229e-01
4.31249588288737e-01
3.16453810345386e-01
2.62476946175505e-01
5.96250108219544e-01
7.38231272084393e-01
6.86760087077682e-01
4.64695982685134e-01
3.08223718227343e-01
8.89489323984484e-01
5.33539038534080e-01
1.68398290426187e-01
9.44906584939931e-01
5.82713880114938e-02
6.34502897641317e-01
3.00224196451929e-01
6.39365226606807e-01
6.01332963557947e-01
4.67907659500738e-02
1.53943774533591e-01
6.57728790184877e-02
8.02032676037366e-02
6.91031311536647e-01
3.17429610679942e-01
6.02521817505623e-01
3.07857469389836e-01
1.74476314562920e-01
9.36051407580437e-01
7.36962838099748e-01
1.73753472942639e-01
5.12853607078783e-01
4.05460856628609e-02
8.46091048961852e-01
7.01144194997672e-01
2.93429050634907e-01
8.87895922745560e-01
6.32994101665649e-01
3.00825386929397e-01
7.30977303802412e-01
8.57201097738997e-01
2.56991248125981e-01
7.34661367325547e-01
8.16829427229332e-01
8.80350066417415e-01
3.68560775597372e-01
8.91389646675750e-01
4.85209257156391e-01
9.65437759881354e-01
4.13071800629301e-01
7.58045095742179e-01
1.41071781760834e-01
1.59478553789948e-01
8.91068752489389e-01
5.22411681696218e-01
9.38731045833194e-01
9.29831822284905e-01
9.43316393972865e-01
6.45943615369743e-01
2.46894566239647e-01
4.81483277354798e-01
6.17957046437881e-01
9.32418279246635e-01
4.15336012411707e-01
1.78254907257730e-01
8.41795248558673e-01
1.09212215724068e-01
6.62191128153311e-01
6.66021931821728e-01
7.93746248730399e-01
9.42904442516664e-01
6.25486007263202e-01
7.40226303507720e-01
8.78160822102650e-01
4.09180697674716e-03
5.54654488948578e-02
5.86724558200441e-01
5.91728919996381e-01
6.44984889057373e-01
3.19919678005919e-01
5.04770804108929e-02
9.01849917103444e-01
8.17848984094286e-01
8.51637163026632e-01
8.83467848453048e-01
9.91210395277065e-02
9.29511218567647e-01
4.89368238891942e-01
4.87752719278847e-01
9.68704440643254e-01
5.69554568923870e-01
3.47245412309683e-01
9.63397210875283e-01
6.44519648844070e-02
6.22561575317001e-01
1.59604605828799e-01
7.21526495640961e-01
3.40786246008745e-01
5.35922417740584e-01
4.16169393629489e-01
1.84559275473004e-01
7.76345720402624e-02
7.08277711920188e-01
5.01475982775753e-01
8.34382442133405e-01
6.14379050020039e-01
5.79352039400481e-01
9.27868500828787e-01
4.97319778958979e-01
1.76772657109622e-01
3.27481361460748e-01
5.75315135374113e-01
7.70562309970811e-01
7.79731987734906e-01
3.53740210987299e-01
2.33236460434906e-01
3.62650664600915e-01
9.80420070280283e-01
7.12617839869398e-01
1.46235350553642e-01
8.83165151053103e-01
4.42580464902878e-01
1.80589402830369e-01
9.75520548966057e-01
3.25600180419380e-01
9.82631128811429e-01
5.94272159605563e-01
1.88836729426865e-01
7.70455631822954e-01
1.04330976849281e-01
9.44115426373082e-01
9.96784467574417e-01
1.55874040560082e-01
2.34711915355026e-01
7.55532413678411e-02
9.79121107663068e-01
9.83676359727869e-01
8.49174638087814e-01
4.73640461980591e-01
8.25469342104935e-01
2.33851174976644e-02
8.73977823285934e-01
3.91382021164215e-01
3.57006893665483e-01
7.78259174183502e-01
6.38799546556970e-01
4.69517450912027e-01
3.49098393232873e-01
6.42210391794489e-01
8.35079432519355e-01
9.27934526273866e-01
5.46788736705096e-01
8.64162762083700e-02
6.98068791568068e-01
2.85859668820603e-01
9.90134393757337e-02
6.34128537346267e-01
5.29534036698635e-01
6.55500712850442e-01
3.54976838012426e-01
9.03037439755147e-01
6.16723566621449e-01
5.21532685938042e-01
2.95958764290319e-01
6.98854668301133e-01
1.39706990072493e-01
8.53221161401211e-01
5.92689571013804e-01
9.21116064370316e-01
8.85873735413269e-01
3.84813683446549e-01
5.49585336769028e-01
3.67115035508014e-01
1.18019583536163e-01
5.85972578955386e-01
5.61796238348164e-01
1.76056524701308e-01
4.60646208391459e-01
2.14017972571697e-02
7.20824088777038e-01
2.51219692682392e-01
5.16517984624082e-01
9.67202707242310e-01
5.06482435078296e-01
1.05255611474851e-01
7.36801910348796e-01
6.37927642866670e-01
4.58397608265095e-02
2.85458906033148e-01
7.28989036143675e-01
7.48849963949650e-02
1.81518133199266e-01
5.13425499493561e-02
4.03100283376155e-01
3.42812963688767e-01
8.67664401879581e-01
3.30112563219367e-01
1.07419126467759e-01
4.23304727886281e-01
6.35658132344016e-01
5.38203319238335e-01
5.56850208098396e-01
4.47947128638439e-01
8.46511704422937e-01
2.69172459329443e-01
1.41589755678347e-01
3.56902134714031e-01
1.51863469338207e-01
9.21540161196414e-01
2.15934299944782e-01
7.95642324753016e-01
6.15081741284774e-01
9.25411815613400e-01
7.76125157542970e-01
1.16237407075783e-01
3.64273714148374e-01
9.23197853558378e-01
2.76419133548059e-01
1.55032378659174e-01
9.91487306282712e-01
7.80839961987169e-01
3.70429993846366e-01
8.10333095440548e-01
4.37592066774045e-01
9.18244694576284e-01
1.29472800464187e-01
8.28032181061911e-01
9.11904719833955e-01
2.41548637032330e-01
4.09772401577566e-02
1.48813831194375e-02
1.49421047369365e-01
4.93304731537573e-01
8.85897511077206e-01
6.04831948208316e-02
5.86243545889615e-01
9.56883622662567e-01
5.52270937409774e-01
1.45949800988680e-01
5.80720221138022e-01
9.31570618105822e-01
7.53558319132348e-01
7.11372022514922e-01
9.86480129550696e-02
2.55157017904150e-01
4.92517817013332e-01
4.45101813321854e-01
3.44749891547216e-01
1.10213391168547e-01
6.49102407253368e-02
6.85942603241264e-01
7.09294337325191e-01
4.02841734152595e-01
2.18339260972150e-01
6.99304676052273e-01
5.36477189156068e-01
5.40974299897070e-01
3.66427139959069e-01
5.64429690722579e-01
3.74705851148289e-01
9.45487145543834e-01
5.18425349090908e-01
4.36720860980046e-01
9.57906061685352e-01
2.96657363768615e-01
8.27277497402410e-01
7.65370250303037e-01
6.65198134423041e-01
5.52513927427100e-01
4.69775429226388e-02
2.22283038496232e-01
5.38002960672965e-01
9.81073420932559e-01
7.56956764527455e-01
9.18940279192441e-02
2.76691419931500e-01
8.80317231965477e-03
2.22738703179246e-01
1.44457725233702e-01
5.84715134175954e-01
9.51686610820621e-01
9.79903318204409e-01
2.03123432053819e-01
2.80232339401783e-01
1.88929520758247e-01
3.01023415271113e-01
6.36465123613170e-01
4.34849575715355e-02
2.30831697901727e-01
7.81373180140743e-01
5.80664200222433e-01
9.76037796618940e-01
6.69147461431743e-01
2.75414752205206e-01
2.01505086105840e-01
9.12310447173654e-02
1.22263639586506e-01
5.14510826974996e-01
5.39857206027311e-01
7.64243172110504e-01
8.90593296018326e-02
9.66392094569867e-01
6.28433411256345e-01
6.91099955030274e-01
9.40009017160106e-01
4.27209440044641e-01
2.80999434422338e-01
4.86524950534845e-01
3.22821589280172e-01
8.97528491603237e-01
4.12832612068531e-01
4.51232493991776e-01
7.09991036338238e-01
1.38596013962624e-01
9.06314450024001e-01
4.12794727482323e-01
4.48118912584745e-01
2.09941136499209e-01
5.13476398848236e-01
4.84044232936346e-01
4.86256982482091e-01
7.51744623456055e-01
9.60312684747688e-01
3.22280209507066e-01
9.16223241509678e-02
3.58422839023702e-02
1.52763288846862e-01
1.00470122479626e-01
3.99379194301279e-01
2.09027543941328e-01
4.80409382378078e-03
7.25261322550438e-02
1.68769668599641e-01
2.58803865480356e-01
1.54867949249448e-01
2.60750411805931e-01
9.41870133369054e-01
2.66362873406733e-01
6.35080495304885e-01
9.82232738190968e-01
9.75511296045513e-01
6.66001948081065e-02
9.34592045212202e-01
9.18047118912702e-01
2.19112048449798e-01
4.67057290404029e-01
7.22412258185836e-01
5.57711128278942e-01
4.35310072562293e-02
5.45419899180552e-01
3.25315348172895e-01
3.55744391325113e-01
3.75464598950494e-01
2.61789642473601e-01
2.70309594845048e-01
6.62426819647784e-01
7.18995554200566e-01
1.41484298071269e-01
3.20754360496318e-01
1.97421494030966e-01
7.82299900293903e-01
8.27234267418076e-01
8.99135278995850e-01
7.12848785780702e-01
3.78948645401649e-01
9.01227830964548e-01
7.07327103863345e-01
6.55029220117487e-01
7.21866381844419e-01
1.54308737219600e-01
9.92322713578239e-01
9.58463200399169e-01
5.93424373756984e-01
2.46987229307202e-01
3.93657365166599e-01
8.60618229564565e-01
2.36538589260481e-01
2.33042745111417e-02
6.04566236186491e-01
7.83469455999909e-01
3.97281706683218e-01
6.07696225956485e-01
3.51003158832559e-01
7.12953806948764e-01
7.96319269144360e-01
3.03103682497728e-01
3.61814643177177e-02
2.45624635680556e-01
2.51071793348750e-01
1.55351827773815e-01
2.56025447068850e-01
4.34906072461966e-01
5.89027560182148e-01
2.21148758475659e-01
3.03509615496827e-01
6.53219061846430e-01
7.47593327110530e-01
5.85856712203397e-01
9.57096371205329e-01
4.52826057878342e-01
7.14910289974639e-01
1.76893831848451e-01
3.15202700764848e-01
6.50824485165322e-01
2.03830108715310e-01
6.15705457008209e-01
4.73696324888457e-02
2.25593453317797e-01
5.61577563104086e-01
4.63996888505250e-01
9.55895080366579e-01
5.15068008125831e-01
3.42574236987306e-02
9.24402098666985e-01
6.46644839786189e-01
7.14230739537521e-01
4.38974910741267e-01
8.33788758771685e-01
1.12582675266431e-01
5.65461962903409e-01
7.17414688916437e-01
9.84036435835292e-01
2.48776284678628e-01
1.72952989392020e-01
3.93412533045271e-01
3.93958898279514e-01
1.15238090709080e-01
1.13614502679985e-01
3.50770116560513e-01
1.08714119916482e-01
3.57106109723986e-02
6.02364672653560e-02
4.49955532318293e-01
4.08065115612766e-01
2.11022532188311e-01
9.30472878575496e-01
6.59255300720386e-01
9.78515959729572e-01
3.06441535682073e-02
3.61086301884201e-01
2.52684117986255e-01
8.15015218570663e-01
1.05351059711463e-01
4.60742519117836e-01
7.25691922180836e-01
4.14731714255290e-01
1.72410373498328e-01
8.12010499177006e-01
5.06142599800869e-01
2.27367903116257e-01
6.83390223264015e-01
3.17560674726916e-01
8.92433583435073e-01
6.79258620356282e-01
8.54159074829743e-01
6.05823549022738e-01
9.60365187182849e-01
4.90620403745642e-01
2.51752651348287e-01
6.57873280221719e-01
8.79761528138191e-01
6.43837393423299e-01
5.50570219502035e-01
4.63139970767193e-01
7.04708433199274e-01
7.44144759019692e-01
8.60396888519346e-01
1.06566997241932e-01
7.54586128406522e-01
4.25410775931428e-01
1.38318508792949e-01
2.64104997394029e-01
6.16414353035729e-01
4.58959641246327e-01
5.00996469409034e-01
8.86233752297028e-01
9.20880953222017e-01
4.09391341899119e-01
7.79472667826990e-01
6.69405373119136e-01
2.99789531217490e-01
1.17773034724597e-01
4.65010347144216e-01
6.09748510752523e-01
1.53836006635722e-01
5.58277645182081e-01
9.66705277385431e-02
3.30885480456804e-01
7.55010868550212e-01
3.07692556709590e-02
1.02448174296825e-02
4.09336083912731e-01
4.91082123648858e-01
1.27382093077764e-02
1.71274262378485e-03
8.11553784326095e-01
2.26611564754858e-01
3.42566863172095e-01
8.94576500403496e-01
2.58172277269794e-01
5.74652763723188e-01
1.20612759954759e-01
3.84793518753623e-01
9.15644585357021e-01
8.68528980374402e-01
3.72937636899699e-01
6.26527390425816e-01
7.25952674192313e-01
3.76707397108161e-01
3.75999615172656e-01
7.99758697044696e-01
2.95891750817076e-01
5.08201586227277e-01
1.82102431360900e-01
2.62637960516487e-01
4.71753592924927e-01
8.07670797291834e-01
2.91662678582379e-01
3.66724594093993e-01
4.72029418041833e-01
2.20896703120105e-01
5.58489835580224e-01
5.87094612042769e-01
3.44401280672694e-01
1.95120301058904e-01
2.63306757122645e-01
7.17078754643815e-02
2.62430100590653e-01
2.28658434832061e-01
4.35860856864003e-02
9.24739086590820e-01
5.09934887260671e-01
9.98594322893775e-03
1.96379806629164e-01
1.09167917944911e-01
9.19734075132578e-01
8.87488449765252e-01
4.33290909798800e-03
5.04570774327813e-01
2.99221828413800e-01
5.34857317597315e-01
5.05367161902828e-01
1.43742836401692e-01
9.76112223098151e-01
4.54519879272873e-01
5.88876498845895e-01
5.99423093958044e-01
4.68491222844652e-01
6.23436840500624e-01
1.54440978886926e-01
9.52212378687069e-01
4.47346615161590e-01
5.21578632105237e-01
7.93782280877106e-01
7.87839721997002e-01
8.04454543151709e-01
4.65307661660752e-04
4.96619252618448e-01
1.34664258073905e-01
3.83358081094838e-01
2.01460142896529e-02
6.68875183002195e-01
3.64096772892286e-01
2.22502077401071e-01
9.41203087639738e-01
6.48634546189332e-01
6.00693694024115e-02
8.91979620950639e-02
1.17290995504197e-01
1.25555481646802e-02
1.72512351532783e-02
7.88823654746625e-01
4.94981136255543e-01
9.66357751699868e-01
9.43975977859227e-01
2.96264777032439e-02
2.97699623496551e-01
3.43680026166834e-01
7.70964090781528e-01
1.04376125159225e-02
5.15919642514270e-01
9.64072788884809e-01
5.38076858281611e-01
7.67608041418069e-01
1.41204898806233e-01
2.03884221693611e-01
2.17228779186836e-01
7.60944587669405e-01
4.03111857414069e-02
9.51015737266873e-01
7.86360620336189e-01
4.29372730504630e-01
8.38238171790191e-01
7.87016181695601e-01
2.63439293232804e-01
1.33700369685972e-01
4.52110282198996e-01
4.15862537790105e-01
7.98718028418826e-01
6.53131796807657e-01
6.79023829691432e-01
9.56592779139104e-01
8.22787679473062e-01
9.33296497249013e-02
6.79726161797910e-02
7.73364438587757e-01
1.64109478744298e-01
1.28446999853002e-01
8.02544533612598e-01
1.44856961002449e-02
4.11056448887041e-01
3.30241883198858e-01
2.87267056231988e-01
9.77697543993769e-01
7.65206680625177e-01
1.24504270171193e-01
8.91092803219017e-01
4.28369469380371e-01
5.31367976984484e-01
1.68950089782859e-01
2.46897182950980e-01
2.89043607105007e-01
1.30765488140708e-01
7.41709374730669e-01
2.61923467774364e-01
5.83774754015956e-01
1.46002413617086e-01
3.84861864582325e-01
6.51652594840081e-01
3.45058158462402e-01
1.39708125892446e-01
3.61373138120868e-01
1.03690276088579e-02
7.98309129879929e-01
9.59741385858650e-01
8.19959413285064e-01
9.54372072655983e-01
1.25368018188814e-01
2.65779538023799e-01
2.06849001371831e-01
2.09598469221240e-01
1.13756172734665e-01
1.68619634704200e-01
7.50945285839056e-01
1.75979839885225e-01
2.33252039656909e-01
5.26726068413487e-01
5.20162920012422e-01
5.66801477875936e-01
1.56428953888044e-01
4.58654533076911e-01
3.82326612513165e-01
2.85969639090557e-01
6.94435755351322e-01
2.43039566601870e-01
3.79198057974043e-01
8.78041175080495e-01
9.96500542217900e-01
8.78289364533659e-01
3.42449626198255e-01
6.83215797020021e-01
6.41346561425634e-01
2.83704199759252e-01
9.33721497987003e-01
6.71615914799453e-01
8.05641300811204e-01
7.76565277560089e-01
7.13290953530371e-01
8.49863946613507e-01
9.88341858669224e-01
8.54407451147247e-01
4.48897516160821e-02
8.18101953298348e-01
1.94756559323661e-01
6.76485277303237e-01
7.65788723543585e-01
2.82340076327747e-02
3.94632551028291e-01
7.07397039677924e-01
1.61898286949554e-01
5.72493430667104e-01
8.96183731805185e-01
2.67055454596777e-01
1.32847875334129e-01
4.68338718052261e-01
5.90974251667815e-01
3.74685770140863e-02
3.94596094253608e-01
5.06625570773011e-01
6.92126431780312e-01
6.87285130259615e-01
6.45936939217889e-01
6.60284486673514e-01
9.73586546994590e-01
1.51536821576755e-01
2.36335530172659e-01
9.34940848335920e-01
9.06680673669185e-01
1.77479301989286e-01
9.84103901329816e-01
3.18150348365887e-01
9.88815063636520e-01
3.36278337557642e-02
2.00422700650528e-01
1.66937573266770e-01
2.22440175659267e-01
8.21450893470831e-01
7.53842418986389e-01
9.25934949673424e-01
6.55110816742444e-01
6.75395020009084e-01
6.26406580327108e-01
4.29060413123775e-01
6.26176199162340e-01
2.91193948141762e-01
3.91942001174457e-01
8.09405967673704e-01
9.21425696319251e-01
3.55297700301208e-01
4.62321138449696e-01
6.15716835520761e-01
2.55354971852268e-01
2.91775735005061e-01
3.61216742372843e-01
9.11658761989238e-01
1.33108239628051e-01
5.38205577416699e-01
1.19282687149980e-01
4.53492125100470e-01
2.59363134071507e-01
7.44103546713760e-01
1.10673223283113e-02
6.59409448543469e-01
6.71782559846003e-01
2.99641193148711e-01
7.73485881422559e-01
2.84987582451057e-01
1.93514226829027e-01
9.96814362589512e-01
8.88145998813724e-01
8.66822118774823e-01
3.10500229417620e-01
1.14721683986531e-01
1.80973043328633e-01
6.84924985810488e-01
6.35868504603207e-01
2.97494667857775e-01
2.16729197323941e-01
8.09258733052925e-01
9.58626847930238e-01
8.32392696152673e-03
5.46493258122040e-01
6.85468182815149e-02
1.75728432999024e-01
7.47671654035599e-01
3.39066466206867e-01
6.21949022406480e-01
3.81008318531692e-01
6.86213875769174e-01
9.03317045180941e-01
6.36832508721549e-01
5.25842844004785e-01
7.39991537717707e-01
1.62734814974039e-01
9.31233756697058e-01
5.91723091174673e-01
2.97694177732985e-01
7.82459551952048e-01
9.25737614286056e-01
6.07146826970938e-01
2.69839693486393e-01
9.38226889564698e-01
7.72704665654866e-01
6.09115631795706e-01
6.80580654169162e-02
6.59958051271451e-01
3.28096051049868e-01
3.31153880323318e-01
7.82692973717780e-01
2.42691293995709e-01
9.77457925249900e-01
9.78289561301573e-01
5.70549929793053e-01
8.56339883872621e-01
6.09022617794636e-01
5.62215734301184e-02
8.08092019296744e-01
2.30599091986569e-01
6.11485630757973e-01
4.03835596596357e-01
5.68915558285825e-01
6.65019825296831e-02
8.31025194016913e-01
5.78194805882922e-01
3.81661535528207e-01
3.45760501377262e-01
9.30832774971729e-01
7.10142477740478e-01
2.95343396289269e-01
2.79144498969181e-01
6.34330404902983e-03
2.14057734044759e-01
9.00396279196486e-01
4.16411404545603e-01
3.32267915234628e-02
6.87455131336621e-01
2.88832890038426e-01
3.95771300525259e-02
2.15724993683451e-01
3.60352363596466e-01
7.53082078848239e-01
2.79436508979094e-01
3.65351492995072e-02
5.75192789775329e-01
4.01658377258631e-01
3.49566149412965e-01
6.76631183929356e-01
2.79638379357239e-01
9.39756681573019e-01
3.53590674466636e-01
8.73414615134629e-01
2.44494201309658e-01
5.50243903775829e-01
4.78978069336854e-02
3.19425497738372e-01
2.33418927348393e-01
4.33650738521895e-01
3.17081438892809e-01
4.27894454750674e-01
7.17957819857003e-01
7.90122912652426e-01
4.77167753473611e-01
6.15127529955596e-01
4.60784942188116e-01
1.35887612009271e-01
9.63156014647442e-01
2.96981982857315e-01
3.73973498723446e-02
9.46938474287678e-01
6.44551263528911e-01
9.66296972930173e-01
6.10520159461117e-01
2.79175226319524e-01
4.01813695025745e-01
5.13744860332513e-02
5.90236879715411e-01
9.94945205443683e-01
7.81441102794474e-01
5.43509275943167e-01
4.80646194344207e-01
9.02471264778595e-01
4.77679644330004e-01
6.11605365660988e-02
8.17112397526165e-01
4.17675579240115e-01
3.36201932651073e-02
2.99030006287828e-01
2.33350292159576e-01
9.32153128015526e-01
2.71843028176697e-01
9.44378283318176e-01
6.51575925585836e-01
9.87279602733099e-01
5.88008517369682e-01
1.47916588593994e-01
2.83263789357444e-01
6.43518067896687e-01
7.69286575116181e-01
7.90435111691371e-02
8.83020313024756e-01
5.16903622275268e-01
2.95043035009029e-01
2.82968381915928e-01
1.52634123522146e-02
5.55864445678834e-01
2.16052005921936e-01
8.38036310934360e-01
7.22304352171286e-01
8.81986904149602e-01
6.20440951205002e-01
1.44149105051230e-01
9.74490173643352e-01
3.38679901277957e-01
2.89583398769800e-01
8.04596820585450e-01
3.13988389532486e-01
5.88191476808601e-02
7.66204058751336e-02
7.91336990506575e-01
5.14580199658213e-02
3.37993075994792e-01
6.03206300273867e-01
7.81626670785992e-01
4.11147278415828e-01
4.20531964486693e-01
4.62873535276074e-01
4.39914206040278e-01
8.31084291802952e-01
2.45413688943518e-01
5.32582678263712e-01
8.34185120712693e-01
1.86943641280706e-01
1.66971587375457e-01
2.03146118375187e-01
7.48099484993819e-01
4.74098036710780e-01
6.99848246894457e-01
8.13467807876712e-02
6.43633099433310e-01
6.36096597275920e-02
5.61406718495189e-01
4.64292559811267e-01
2.11122550775528e-01
8.51993125442440e-01
1.48911587812478e-01
4.78803143532712e-01
5.65139906159864e-01
5.37117778810272e-01
5.73281446326684e-02
6.32640944678036e-01
5.12285156448400e-01
7.78509738315356e-01
1.53686316246358e-01
2.64177055322836e-02
8.83675276341775e-02
5.86488908813558e-01
9.54796237188454e-01
7.74473790158345e-01
2.39066158400782e-01
5.71416683546218e-01
9.74749162342340e-01
3.73949712457083e-01
7.59669532339241e-01
2.43788459510495e-01
3.72464774798482e-01
8.11310652375629e-02
5.99968146386902e-01
3.66203499026411e-01
9.76980076225294e-01
2.81167117220595e-01
2.23293839463691e-01
4.47165578689231e-01
1.48987591366712e-01
6.42401615707722e-02
5.90630002948380e-01
5.98700424174076e-01
7.74839478522202e-01
2.56058639166705e-02
2.94084018565003e-01
2.07814374280330e-01
6.54061836230402e-03
6.93020156885286e-01
6.46190379009918e-01
7.99991372117986e-02
3.53286898360304e-02
4.96830407333885e-01
9.03439926115890e-01
4.17484274333353e-01
6.83723564302421e-01
3.75650808619365e-01
2.74983258056579e-01
3.11071699692278e-02
5.11097573548748e-01
1.52820100429293e-01
9.05912901273117e-01
8.50401372604430e-01
3.44618004768728e-01
5.05377714567261e-01
9.06961115715978e-01
3.22077329657755e-01
8.76425219893558e-02
7.29873806162027e-01
2.60975493706612e-01
3.18293233730092e-01
8.34953186239478e-01
9.05953481842031e-01
2.83623790720494e-01
1.08677529879327e-01
6.19926809752489e-01
4.80000146753188e-01
2.68490440036924e-01
2.53363458172901e-01
7.40247038469312e-02
1.81035150489633e-01
3.38515431231388e-01
2.85402335157352e-01
7.77531885686644e-01
3.72688080037476e-01
1.00433182447254e-01
9.98204576523447e-01
5.57417734153006e-01
1.15210908119689e-01
3.37061461334369e-01
7.16097387694137e-01
3.74326316468512e-01
6.60055094871121e-02
7.72637895863957e-01
5.49750599748812e-01
2.71692085851853e-01
5.81425195064186e-01
8.45300306127905e-01
5.38861539285423e-01
8.41321701997389e-01
4.91649983698854e-01
4.09801695050629e-02
5.24971410520598e-01
3.80010451847565e-01
1.91133618181945e-01
4.09516616050893e-01
6.53369963889530e-01
4.50976962912891e-01
3.80753599324625e-01
8.21398625458866e-01
4.80901085442766e-01
9.94116290471276e-02
6.19689309866218e-01
7.54267677349464e-01
1.80120898386278e-01
5.54304740989639e-01
4.91679452617626e-01
1.36436476002771e-01
1.22425353149522e-01
5.30963851097596e-01
6.05733353860589e-01
7.12426410233145e-02
4.34068241795390e-01
1.72131557020500e-01
8.71921653934223e-01
1.74573072897940e-01
8.48515174513228e-01
7.74335048425417e-01
8.73643047572446e-01
8.83218933169274e-01
4.74157136356781e-01
2.02578898681159e-01
2.15592510055484e-01
2.08250698365107e-01
9.82051748311303e-02
4.67633945250019e-01
9.99599581596793e-01
7.73907407848299e-01
2.98078377168669e-01
9.42597827763273e-01
7.58066714503150e-01
6.44664554386885e-01
1.57599698290154e-01
7.57484411100064e-01
5.21903598397736e-01
5.85870736772389e-01
7.00023443509892e-02
5.12128684575459e-01
5.19241138151902e-01
8.90876894671345e-01
6.03246412320497e-01
6.59483366108099e-01
6.90174636008096e-01
3.53620031715362e-01
8.86880065542696e-01
2.55912411982082e-01
5.17955237054872e-02
5.55049499880270e-02
8.49005844978017e-01
8.21578737335654e-01
5.29676041043400e-01
7.77558851377139e-01
9.27674059707723e-01
1.20272666586708e-01
6.84502143933663e-01
4.04840104739674e-01
9.01992635955175e-01
8.80268127618337e-01
8.04201981941215e-01
8.51454505457223e-01
2.16192742124874e-01
7.55309144896889e-01
4.36804607269547e-01
3.71899459300836e-01
7.24465577765399e-01
6.28758310753757e-01
9.89582128040789e-01
4.27370499915721e-01
5.31251554858710e-01
5.41511442763206e-01
7.38126641335442e-01
1.12055053199547e-01
9.50516828316307e-01
3.99540104078506e-01
8.72998852692780e-02
6.47776090110410e-02
2.61906028259739e-01
3.03986743810242e-02
6.06080056066853e-01
4.36502036272883e-01
5.33617287710888e-01
8.86880898147784e-01
8.24009275190295e-01
8.05198968596535e-01
2.07918607940296e-01
3.50025421207283e-02
5.43676136860520e-01
7.74818615691244e-01
9.28430184029337e-01
7.35420745869931e-02
1.67529186699047e-02
6.29679928761992e-01
5.29691331450255e-03
9.36987235146242e-01
8.19116686816519e-01
9.12950597159639e-01
2.53212993252556e-02
9.85457636113020e-01
6.85349848922608e-01
3.15919339073284e-01
4.65703430452872e-01
5.73472645547098e-01
4.35196141213584e-01
2.70429809282367e-01
3.41505894948300e-01
7.12884287331949e-01
9.99560783150949e-01
2.17600228068791e-01
3.65979428283253e-01
1.30926564249261e-02
2.81191596528523e-01
3.30862560106953e-02
7.01566994693446e-01
5.68170702805776e-01
5.17608996981247e-01
9.41082161213015e-01
4.95684076394765e-01
7.14826467173978e-01
6.81409080330265e-01
6.68571199181019e-01
1.95847664692851e-01
5.47414335755724e-02
2.88358236185788e-01
2.87298477456111e-01
6.57959020382495e-01
6.55935825656284e-01
6.42115761355951e-01
1.75640201515235e-01
1.80861121241532e-01
5.52845075337988e-01
7.41916125356323e-01
6.80023767763527e-03
2.44357914025957e-01
7.89248455950007e-01
1.46754078086798e-01
9.64952927260038e-01
3.73413166275773e-02
6.56202414854291e-02
2.63291802283257e-01
8.02508521006615e-01
2.83402527940308e-01
2.73652975893388e-01
5.03921658644810e-01
6.80262368889128e-01
5.39739640633056e-01
2.40894558119093e-01
2.30355386563246e-01
5.31904362514633e-01
4.01571658076177e-01
6.24917596965450e-01
8.06940063754178e-01
7.80999898128862e-01
8.04352515075645e-01
6.16099775491464e-01
3.67551149567651e-01
7.19291332472507e-01
9.12102359252513e-01
3.26317448492809e-01
1.56015081006017e-01
4.83177617358040e-01
1.37851822655048e-01
9.54067154689318e-01
8.92047077417077e-01
3.91866533262857e-01
3.66157777900976e-01
3.71338549722175e-01
1.92414082590359e-01
6.76733727903709e-01
9.61065597857616e-01
8.10714993133025e-01
2.99674726189813e-01
2.32421568712920e-01
6.90194359129620e-01
7.93188129879455e-01
7.98901737268064e-01
3.76485712406080e-01
5.76159938980937e-01
5.20388573895956e-01
5.36061999870700e-01
5.33989463777091e-01
8.04130293655230e-01
7.52510023040178e-01
9.24141097478809e-01
4.48843224888687e-01
3.40788069976865e-01
9.99802097411356e-02
1.70773869893244e-01
3.88961504128009e-01
1.06950829575267e-01
9.99779535573874e-01
5.68488238073413e-01
1.62602979657010e-01
2.97175721516070e-01
9.86893472173702e-01
6.77527626074012e-01
5.36447565539689e-01
8.06137444633771e-02
3.02681132597230e-01
4.50291980481859e-01
7.41377724609678e-01
3.18962518346204e-01
7.36092899072704e-01
2.69536570015084e-01
4.48158337681271e-01
6.84845442790591e-01
5.13051572270770e-01
6.74867110177713e-01
8.64709618580900e-01
9.33945731824340e-01
2.63096540647670e-01
3.68785974047861e-01
9.95353229282256e-01
5.15777103878659e-01
6.59864047989424e-01
9.36732026955196e-01
8.27304903773179e-01
9.20530256822444e-01
3.22176134272355e-01
7.66799836964212e-01
7.69277245525417e-01
2.49163063140356e-01
8.79104566703891e-01
4.77376525885062e-01
2.95568504153177e-01
2.32864255815727e-02
2.68011151810315e-01
8.42148277277072e-01
2.53683224562639e-01
8.77624816055446e-01
6.19359760094446e-02
9.55674242911934e-01
4.85310217500954e-01
6.60077609324245e-01
5.48635113986411e-02
5.90022203545816e-01
5.69929381277148e-01
7.12783064695565e-01
3.40319216610201e-01
8.27269526123431e-01
3.36111376966224e-02
3.19125490934104e-01
1.60522906770731e-01
6.92963386473792e-01
7.33494735357073e-02
7.28274021213612e-01
2.25811348601737e-01
9.53346529897666e-01
9.63098531106159e-01
7.51431095420221e-01
1.81613977552749e-01
5.80884372522388e-01
6.21407326710969e-02
6.46007988178531e-01
7.17112380900972e-01
2.27969709051687e-01
2.45583526612735e-01
5.90071022149319e-01
8.34694126659853e-02
3.55868020095967e-01
4.25781662830094e-01
8.98436698202719e-01
6.03403443313004e-01
7.28066303783272e-01
5.31142104077498e-01
7.38534844393708e-02
1.49540592337358e-02
9.77498393786856e-01
8.44234064950338e-01
2.53255973110005e-01
5.32225222834796e-01
4.97525134300784e-01
3.84726179163930e-01
1.28038347932020e-01
1.08249652111114e-01
7.52337152937674e-01
8.77652183256128e-01
1.39792424711851e-02
3.67652846090231e-01
3.61786788618211e-01
1.30620511705448e-01
5.92674305822381e-01
9.37448593350894e-01
9.34349040344628e-01
3.87746990852030e-02
4.00142356426010e-01
6.82431022358733e-02
4.73527781905110e-01
6.77222618296463e-01
1.39185404110112e-01
1.51129521088645e-01
4.16758570054910e-01
5.94837568149070e-01
4.16693180309574e-02
2.11386395986624e-01
7.98287511324340e-01
4.35088780213844e-01
5.58834551767301e-01
9.07734017354708e-01
4.74124056582477e-01
5.36035493813012e-01
9.19125603514264e-01
7.41545634041959e-01
6.92595864406510e-01
7.13223687032117e-01
7.16709606429950e-01
6.91530080178712e-01
5.59585463645373e-01
5.49819737153686e-01
6.12502004630592e-01
1.92404059663370e-02
3.57032391437433e-01
3.02074902972782e-01
5.09494231285805e-01
7.67328613150587e-01
5.65120887983670e-01
8.98135044412848e-01
4.91718297256447e-01
4.38169147122966e-01
6.35473635634594e-01
4.88540857259268e-03
5.13455768357735e-01
7.48514322962237e-01
2.62932823919438e-02
4.47490595074300e-01
6.18847219882061e-01
1.91814394377946e-01
4.31523170775432e-01
9.17885528028076e-01
1.49948141225126e-01
7.17366213279865e-01
5.58607693231503e-01
3.75637074061728e-01
9.02682048305237e-01
2.15251379534474e-01
9.72497776250107e-01
8.43924012421208e-01
2.24212271445273e-01
7.20868654100908e-01
5.03810459039123e-02
9.90758523534363e-01
2.45115959939979e-01
3.53899057662833e-01
8.33348061670458e-01
9.89116633896626e-01
3.56742170980400e-02
4.80468455890182e-01
3.24500879547985e-01
9.27318183881818e-01
6.71179632598885e-01
7.16614866537164e-01
4.15590524371826e-01
6.74735729940904e-01
3.69073377963258e-01
7.27710182141614e-01
6.95223015075612e-01
9.87752032494827e-01
1.40922792973225e-01
8.96523044928655e-01
2.12704493852761e-01
4.61496259118616e-01
5.74044760661475e-01
9.28293469918261e-01
2.04709177120332e-01
8.59259673084875e-01
4.72776602999581e-01
7.59912987907643e-01
3.67943402180422e-01
1.14581209299250e-01
5.84774769021794e-01
8.59882151655639e-01
3.88318185202471e-01
5.25360932780777e-01
6.85821983245152e-02
5.05361313195275e-01
1.23365168715957e-01
9.16985045266342e-01
7.15076421545704e-01
7.22475024633610e-01
8.19210897385699e-01
6.83723289778473e-01
7.87444920712735e-01
3.83266323763100e-01
9.76731718135968e-01
2.17452307990529e-01
8.79559605462097e-02
2.32400331634115e-01
3.89325043121162e-01
5.43755858537579e-01
7.15306327532086e-01
4.63601107728978e-01
2.12534036041632e-01
5.54786397648823e-01
6.58516546774765e-01
2.70084491219409e-02
2.03157984240676e-01
3.82063046263799e-01
1.46892295420071e-01
8.40269548053719e-01
5.51132760165441e-02
4.01581171126642e-01
8.05774096477743e-01
3.12835973592954e-02
8.63711122215936e-01
1.11468628566436e-01
4.94410566669035e-01
9.62611387410031e-01
8.31525589211127e-01
8.70819148982297e-01
7.28948088132992e-01
2.85609921807002e-01
6.39265783543612e-01
9.13982780362148e-01
2.70946590177562e-01
7.69036888966492e-01
6.81722882937530e-01
7.22107731311899e-01
1.47115206602271e-01
3.13109990424648e-01
6.17047337037066e-01
7.82201607785916e-01
2.84890353215027e-01
8.98954437197460e-01
8.76086232508954e-01
7.01779167426812e-01
3.88993369858462e-01
3.85393007361828e-01
1.60036877708887e-01
3.54450290079742e-01
5.67827666210414e-01
6.70837657454540e-01
8.28075053286763e-01
4.55984922181302e-01
5.74674956004247e-01
5.80044693339822e-01
8.37644801391509e-01
4.26508340151921e-01
1.80926125680904e-01
6.62222009926684e-01
9.71609238177596e-01
7.21240328832134e-01
2.85227091805736e-01
5.35150305246807e-01
3.28778891416957e-01
6.71371829690541e-01
1.34946671582447e-01
7.88164550871284e-01
9.18786296520232e-01
7.91022223776699e-01
7.64618825374253e-01
6.26739121956023e-01
9.34900278001704e-01
1.97720034029861e-01
9.21316477713022e-02
4.00587565596467e-01
7.90157030079325e-01
4.48442164709229e-01
7.62550386765689e-01
2.98691234954330e-01
1.04919449494853e-01
8.76795836347188e-01
3.54482568407432e-01
3.70186209886663e-01
8.87308962937926e-01
6.76504545014510e-01
4.02982559535966e-01
6.78972737621326e-01
3.31583969703077e-01
2.07177751514557e-01
5.82925098191777e-01
9.47240830082914e-02
5.31232727080945e-01
9.62064992217671e-03
1.80519847219534e-01
3.18489725704641e-01
7.15603849574246e-01
1.69502966523761e-01
8.23211938798699e-01
2.85168207660603e-01
9.63386134434953e-02
7.13678683090674e-01
9.98097079758498e-01
6.74701565732732e-01
1.64980424297145e-01
8.81854908872355e-01
3.71743288034821e-01
6.77467874716268e-01
9.22371099950858e-04
2.58875845683737e-01
7.76226328287696e-01
1.10510739395160e-01
8.51854154068378e-01
1.40617492270697e-01
9.36687471485920e-01
4.42550191903250e-01
3.02529013176195e-01
7.60683593667990e-01
4.95403196191354e-01
7.92857037568684e-01
9.12800319976815e-01
7.64062668721524e-02
3.82509164151360e-01
6.79367181667568e-01
2.05606219705846e-01
7.99101774901679e-01
6.88243740986242e-01
5.33749317879972e-01
5.77690116817361e-01
4.24488240009761e-01
4.68910712259098e-01
8.18538213080939e-01
9.93214988109254e-01
1.54267035124432e-01
6.81090529570651e-01
4.95835462368183e-01
7.20762830416928e-01
6.11336168431324e-01
2.97717633259962e-01
3.26360875776377e-01
1.21451455428096e-01
2.79631210641310e-01
5.95455725006268e-01
5.84319514186069e-01
4.25218919155852e-01
3.69658225622313e-01
4.84626160702544e-01
2.03198097108964e-01
1.36874303966455e-01
1.27286151222816e-01
5.02574335433558e-01
8.06232939131690e-01
3.27629816425596e-02
2.11844070286132e-01
3.27961183940672e-01
9.27972987927705e-01
8.25033384802635e-01
9.34683283339747e-01
5.26770692757893e-01
5.39133300635663e-01
4.88427525578198e-01
4.29651081320619e-01
6.26738828228088e-01
1.54352980558922e-01
9.78966729182829e-01
1.90596037487218e-01
2.34820961247240e-01
8.81068832436062e-01
3.07445910531385e-01
4.12736817685461e-01
6.73906876985355e-01
7.10211155384711e-01
9.97794866154282e-01
6.53474742645914e-01
6.50624747282041e-02
8.15496451829094e-01
3.18447859907027e-01
5.71013157140873e-01
1.69209163750011e-01
3.46810211367634e-02
8.61723160454576e-01
7.92739610973526e-01
5.95386264529799e-01
4.82944968177104e-01
2.46710963639529e-03
7.51390832795080e-01
3.35409639325423e-01
5.30973677603771e-01
3.27385370549606e-01
8.00957035585096e-01
8.51691973516336e-01
3.30146829274264e-01
6.25574582934696e-01
9.84496279211448e-01
8.02152140682724e-01
7.24564276866717e-01
8.91320682051149e-01
5.97078009161803e-01
6.04093972199141e-01
9.68609667506046e-01
4.57361935882607e-01
6.69785203318060e-01
6.36005702155333e-01
4.07220711741501e-01
5.25482919464547e-01
1.80827197678491e-01
8.17948893649717e-01
8.17455987846965e-01
1.22901866576137e-01
5.99144371240075e-01
1.77463452914190e-01
2.46677810105111e-01
4.88661613448801e-01
1.52167396535469e-01
6.50915566769676e-02
7.71949055968904e-01
5.99970540387381e-01
7.00592347564858e-01
6.66784980922372e-02
7.51977929353951e-01
3.00465405600655e-01
5.05667835803727e-01
7.54665098481950e-01
2.70618331655105e-02
2.02351206307650e-01
1.08940333195840e-01
5.35135454978450e-01
7.88966624916215e-02
2.89698500002872e-01
8.95589851345038e-01
1.84655433120064e-01
3.33357305078050e-01
5.17649210053367e-01
7.55890838116589e-01
1.63043973553873e-01
1.04593666465236e-01
5.44776895251616e-01
2.28534909701385e-01
3.26905016800735e-01
6.31650483608447e-01
2.20462887743101e-01
4.96821519401889e-01
6.06512488520784e-01
7.44877453302937e-02
1.82428381395088e-01
9.77398432060615e-01
9.78041528043466e-01
9.77977371816977e-01
6.51371343051315e-01
5.81114641692698e-01
4.48238704124864e-01
8.49697409766354e-01
5.42242498786236e-01
5.27031237489123e-01
1.33039201887841e-01
6.74947693210034e-01
1.95287564721134e-01
5.36675822351257e-01
8.81803784224977e-01
5.86475179247881e-01
2.94556563364584e-01
9.59726971700798e-01
5.00940696405268e-01
4.57439569248552e-01
9.10174005448917e-01
8.74686820685378e-01
5.73044246245147e-01
5.67215141693267e-01
8.57024442291555e-01
1.86187198175844e-01
1.20237659714688e-02
8.31467753935344e-01
5.84085544597143e-01
2.11681109898366e-01
3.10872792100281e-02
5.36498368682530e-01
4.24064612859737e-01
7.92905838468449e-01
3.55723582665920e-01
1.42849458460848e-01
7.17635381866332e-01
1.02553341809120e-01
7.18599519771783e-01
7.23957231798809e-01
8.04652141126312e-01
7.42177310993311e-01
2.47335572899549e-01
6.59739440335873e-01
1.41066440329958e-01
4.13042058170234e-01
5.69832279254798e-02
1.00351051475231e-01
9.60479465938091e-01
2.46026190166567e-01
1.96661949632582e-01
8.97963666128052e-01
5.70097402225308e-01
9.89782291740294e-02
2.03470226181022e-01
4.46217633651326e-02
6.99827630875854e-02
6.61443008092268e-02
9.84436534852230e-01
6.91363813054317e-01
8.17459818070087e-01
9.87244593616087e-01
7.10176365292770e-01
4.62780286953247e-01
1.20665460218811e-01
8.78808185797626e-01
6.70195840943022e-01
3.36792304095956e-01
7.43052315832761e-01
4.82686573708495e-01
3.55279351667266e-02
8.68196871849740e-01
6.19409263895769e-01
5.65136977221483e-01
5.24806049204041e-01
6.06466072572705e-01
1.78778083474002e-01
9.13823079520057e-02
4.79000187045156e-01
4.69832705642443e-01
2.83848607878779e-02
4.75169750569462e-01
9.52351824092611e-01
2.63053238091184e-01
6.49804744798436e-01
4.40047912819278e-01
2.96343425416444e-01
2.70529327103538e-02
1.37865083961603e-01
6.73246199002648e-01
8.94895995242780e-01
6.11941676722589e-01
1.29517834919632e-02
7.65538883678661e-01
4.40008173670510e-01
8.46028665299065e-02
8.74017849254780e-01
7.90252703516325e-01
3.52143773342607e-01
5.80382016961581e-01
3.48714467595786e-01
2.98454024815923e-01
6.24384748659067e-01
6.06209353336224e-01
9.36448124760537e-01
5.78827181162319e-01
1.06378169361596e-01
9.77255361456842e-01
1.21752310090833e-01
4.61191843652252e-01
7.95032685363949e-01
3.70423279530483e-01
1.89929992788879e-01
5.59509569587395e-01
3.44527061451479e-01
5.14446319248494e-01
6.20914485740821e-01
1.37459441232782e-01
6.30494694027093e-01
8.95690965089167e-01
9.55179092770485e-01
2.28136997979300e-01
5.55113030369460e-01
2.44793649937061e-02
9.11737325943904e-01
8.11152598259227e-02
9.52765561327779e-01
2.73198187027967e-01
3.17094088984068e-02
7.59672764001316e-02
1.52547243171318e-01
1.82799824957486e-01
3.22031292231060e-01
5.22898598219581e-01
4.88548242931532e-02
1.44768822661585e-01
2.09615853548937e-01
6.64611771347538e-01
4.01173222434365e-01
8.42573381363790e-01
2.94033780685664e-01
6.27563042506774e-02
7.16784949120825e-01
4.34319393719850e-01
4.87506269732417e-01
5.15029377812868e-01
2.15327563014348e-01
7.18097616999021e-01
5.95114325123473e-01
6.25885141777139e-01
4.13905414380661e-01
1.28553484600445e-01
3.08298628360637e-01
8.29981701338112e-01
8.06836287317594e-01
5.37139926794455e-01
1.96664878077478e-01
3.28538132953075e-01
9.48247576048743e-01
5.10711938019017e-01
1.60243330176147e-01
9.73069304123664e-04
6.29068182931507e-01
4.81938384547321e-01
7.75676719695317e-01
2.96929046216825e-02
6.11545227732001e-01
6.98026172656887e-01
8.55905821856434e-01
1.29531336805632e-01
3.10948168016759e-01
3.78914283303647e-01
5.95122787477446e-01
9.62021625872387e-01
3.89373965702703e-01
9.63886819508404e-01
1.75267212935828e-01
5.49652859206391e-01
7.97676197541146e-01
9.45200307438540e-02
5.43279866194765e-01
1.21327200709251e-01
8.60459927610595e-01
1.69395703979193e-01
1.21595446479432e-01
7.25380238769341e-02
3.91763085818177e-01
8.47375889501457e-01
4.52679683058343e-01
3.63207192074157e-01
5.73560934243762e-01
7.85145334842096e-01
2.88370787679343e-01
9.27249726908145e-01
8.41327647422780e-01
7.77284209802511e-01
1.63198334161803e-01
4.28291552582495e-02
5.68272012281465e-01
1.37478107681861e-01
5.01478215021514e-01
6.48065797308066e-02
7.60102777877027e-01
8.90508691620588e-01
5.10266726128092e-01
7.34225793431931e-01
2.04209154193051e-01
9.92221417198394e-01
4.74314138043663e-01
4.87996009657095e-01
1.56351021028319e-01
3.73734166056320e-01
3.52619565547371e-01
6.79417996460022e-01
4.36310593521233e-01
6.78895213561989e-01
1.87540814531508e-01
7.97487841330555e-01
7.56729552789097e-01
2.88077493858879e-01
3.07855583696191e-01
9.34343754134353e-01
2.60419731811402e-01
5.27155594992173e-01
2.41880659218555e-01
9.94841408303909e-01
7.17729275045019e-01
5.50134572841973e-01
7.04742891155957e-01
1.12894614748845e-02
2.07155079913756e-01
7.98633485309368e-02
9.88709262307653e-02
9.77998379411501e-01
3.52125117694178e-01
8.78980033248467e-01
4.34079032929505e-01
8.48339736414926e-01
6.96591163841937e-01
9.68812651593458e-01
6.35101181848438e-01
2.01461887028620e-01
9.29731473241721e-01
4.54147784170430e-01
5.25636784539157e-01
2.67156090896157e-01
6.84917821518726e-01
8.66650610422924e-01
8.81908780989932e-01
1.28838882504935e-01
7.53078714829700e-01
4.94807533580477e-01
3.43572762344790e-01
9.81700589721006e-01
5.88426684347664e-01
2.00955467612323e-01
2.01744271676873e-01
8.90434650126052e-01
9.12432835287616e-01
9.69246641786071e-01
8.02299431259410e-01
5.65386908688126e-01
5.89760841782910e-01
9.56776689547350e-01
5.62193733571363e-01
2.44636581392469e-01
6.42170601907291e-01
3.92389080924096e-01
5.88579801879292e-01
4.05067142206326e-02
7.29981255834365e-01
6.86431242274942e-01
9.24494546880516e-01
6.67661607336710e-01
1.12168754605141e-01
7.68745308518160e-01
9.48551609404434e-02
6.02724049686827e-01
8.82856617390912e-01
8.08816999362717e-01
9.07235927587054e-01
6.52234082233019e-01
2.06169281943173e-02
9.13689984747204e-01
2.11037992384137e-01
2.00230004172725e-01
1.86672487722720e-01
6.68694985959337e-01
3.03931524441598e-01
3.00984520980729e-01
3.66120784116251e-01
4.75369668081010e-01
7.94614482065619e-01
5.83512743922515e-01
7.08143560004315e-01
3.99015934506315e-01
2.42266042030707e-01
8.80501720284473e-01
5.79703563153952e-01
6.87793949112844e-01
8.07127257753590e-01
3.82025291257695e-01
5.07375971956516e-01
9.99453532551489e-02
8.63877925256095e-01
2.76178032362563e-01
9.47892155423002e-01
6.47081795185321e-01
5.13491863766285e-01
5.71974926768120e-01
4.93867759107520e-01
9.62867742679356e-01
6.68345792200446e-01
4.76012575192357e-01
2.35810055326082e-01
9.49309608808581e-01
7.42314504773421e-01
8.38428337362225e-01
3.04987297376320e-01
4.51873854331018e-01
8.42210106894487e-01
1.39729159091031e-01
8.72712076810419e-01
4.54258125038694e-01
8.57302637396744e-01
5.46875939481929e-01
6.79674070769767e-01
2.49447089770159e-01
9.10114222471311e-01
8.47308324824052e-01
4.69280025173607e-01
2.40719588257211e-01
1.40412443779252e-01
8.95782010469062e-01
5.85058052028626e-01
4.93512777890241e-01
8.09608905162788e-01
1.27144229275965e-01
9.78516564314287e-01
4.09400069878242e-01
9.65794377745729e-01
7.26214262165658e-01
7.39327351850120e-01
6.80792979092589e-02
5.43716591096654e-01
5.38413694528877e-01
2.99854758273047e-01
4.99340028213801e-01
2.41483103640346e-01
9.59833361638308e-01
8.64405051592746e-01
1.82574894014520e-01
7.97029080797914e-01
6.30413681479940e-01
5.11835537278321e-01
5.52458705292124e-01
3.43014186690549e-01
5.88712066914713e-01
9.41038869990912e-01
7.81577179842115e-01
5.42362287386635e-01
1.38448300905548e-01
8.15736655603634e-01
1.87840229536930e-01
9.77613570152980e-01
2.80529005748362e-02
5.41665190930119e-01
8.15412112678970e-01
6.71118008895037e-01
8.37804339349981e-01
2.73395841288700e-01
1.89626064837519e-01
4.25846441310401e-01
3.37277486434801e-01
3.80719030194748e-01
3.91767706171781e-01
3.11998056439360e-01
2.66428151397916e-01
4.49595900109607e-01
4.86427506977058e-01
7.61959492267411e-02
7.60108682997540e-01
6.74235811713390e-01
7.91776236713761e-01
8.51827235087637e-01
8.75488407984806e-01
7.88391003441991e-01
1.13618178312861e-01
3.03306213576161e-01
1.17240228426102e-01
3.50482215660174e-01
7.71974117615223e-01
9.12639809542188e-01
1.68223446484848e-01
8.11387314373579e-04
8.21208375115075e-01
6.28056476818838e-02
5.71155681440178e-01
1.52726726846205e-02
6.20471993163657e-01
9.37806940005658e-01
6.42676071632614e-01
7.01375711178077e-01
9.22626147931220e-01
2.27961975461619e-01
4.77639255381617e-01
6.80297280680300e-01
8.96621779716879e-01
2.73205527962561e-01
7.05106630998785e-01
5.07031549307046e-01
3.67649275495900e-01
5.58027017602879e-01
7.04679152632044e-01
2.95031985938688e-01
4.17160995560800e-01
8.83717985136665e-01
9.00904824906970e-01
9.36362037110624e-01
4.54589884245727e-01
2.84378852897076e-01
9.93940016322058e-01
9.97915328003979e-01
6.23847502510624e-01
9.74178989386561e-01
8.32395815967849e-02
6.47609191738277e-01
4.83537303212271e-01
5.52967172625161e-01
6.38466745208783e-01
3.25329256939034e-01
7.92411074802546e-01
4.89854217878828e-01
4.13942675471519e-01
5.02247269247349e-01
7.89106996865285e-01
9.18705341824335e-01
6.38244237469456e-01
2.78359132632147e-01
3.26748433653926e-01
8.71048810504701e-01
5.04464759916466e-01
1.26241460785358e-01
1.46648557613065e-01
5.58546437574919e-01
5.55144778994963e-01
1.93395906027362e-01
6.71727083968830e-01
6.57188104089596e-01
4.01509548517072e-01
9.27956695212757e-02
2.65440177596414e-02
6.26144912512697e-01
3.55160809879157e-01
9.48180424259181e-01
5.10267755053983e-01
3.78681675866769e-01
6.58185500590564e-01
8.96515670513717e-02
7.46701548950377e-02
3.37808235006493e-02
1.41961934485155e-01
3.87848976070279e-01
4.31239288514539e-01
2.96259403138103e-01
4.48872528416338e-01
6.33516026348703e-01
3.26098341783030e-01
1.12791226381580e-01
4.74924706800267e-02
8.82554354015614e-01
5.78473607223461e-01
2.65859481222852e-01
1.69973196354791e-01
6.28653200713805e-01
1.11455166912684e-01
9.72592304425107e-01
6.11149500302225e-01
1.69149014403261e-01
4.10764566718826e-01
2.80538652405451e-01
7.32917491783473e-01
4.87705928874809e-01
2.83889898880015e-01
1.15527502732404e-01
3.64592089496468e-01
7.16956518418839e-01
2.51475895405671e-02
2.85269747484972e-01
2.91238181227581e-01
2.78953511721023e-01
8.15010038787922e-03
1.66930321263596e-01
4.30317265851457e-01
8.96984462202756e-01
7.24919541617990e-01
2.81603548850288e-01
1.72673625171468e-01
2.78845359109699e-01
7.59334243480410e-01
5.34863768272020e-01
3.28606006555757e-01
2.46739547104401e-01
8.90161737497493e-01
5.42636295305739e-01
7.43725014111956e-01
9.44100696493397e-01
6.43940040186291e-01
5.62653112974047e-01
7.05907930245441e-01
7.63544732465776e-01
2.25788848072883e-01
2.78210950176647e-01
5.85560972006997e-01
9.69124718654678e-01
1.44207538252285e-01
9.21928765917173e-01
1.98853230516632e-01
7.62915904303395e-01
5.28134260904122e-01
6.68707244482913e-01
4.98404329918081e-01
8.45530034887373e-01
3.42001991990925e-01
6.79553381209425e-01
4.92345587245963e-01
2.56281707592326e-02
5.51913580071677e-01
9.94245662794466e-01
7.72568753874610e-01
8.81102756718156e-01
5.82974771801281e-01
4.24263597440591e-01
5.10697005774281e-02
6.01693516212558e-01
8.00445068633260e-01
9.36360985504813e-02
2.32083790421996e-01
8.17202769174356e-01
7.08946915796830e-01
8.11595331085443e-01
3.60068762998982e-01
3.37203326375067e-01
6.61334574665453e-02
8.80695622524814e-01
5.67234743764155e-01
5.82028289863053e-01
7.49084038017570e-01
6.04120881670329e-01
8.92257769638675e-01
2.09908818518291e-01
6.58897134517265e-01
1.14256347426564e-01
7.77957106056148e-01
9.25692803052346e-01
9.42971094063470e-01
4.39860578225219e-01
1.14684476255909e-01
3.79504738778331e-01
1.24548548653586e-01
8.00029897474593e-01
2.63819666934696e-01
8.64824548223153e-01
1.90134625259972e-02
4.83799847333681e-01
5.95760938961064e-01
9.06009109968584e-01
8.24210800797401e-01
4.80536684184944e-01
8.66749389308188e-01
6.11307324362912e-01
6.15630578021603e-02
7.66480823353716e-01
3.24657099024456e-01
4.30338398291283e-01
7.60094630852666e-01
9.98724204351526e-01
2.74310340596951e-01
2.59041501126582e-01
5.55570964266609e-01
4.05605242571244e-01
2.13262492291801e-01
7.35608656533208e-01
7.45463798578984e-01
2.06254055545999e-01
9.03486983867625e-01
7.75486102916829e-01
2.06072328073777e-01
8.30353723159193e-01
8.50400772455352e-02
6.93518847506853e-01
3.89699274345032e-02
6.49739893269826e-01
1.42980274883452e-01
5.99637490514134e-01
3.55547211400121e-01
1.56588346107371e-01
8.08190408288011e-01
8.59150183439611e-01
9.90825212990018e-01
4.55940973592969e-01
3.01966251030014e-01
3.10032178417287e-01
7.09472282524229e-01
6.20158522628277e-01
6.07420098065488e-02
9.77287542992734e-01
6.36379711096820e-01
9.00587487302834e-01
8.86100799813259e-01
5.48736029402503e-01
8.85317749931689e-01
2.94262605138299e-02
4.23961757153995e-01
3.04125137873782e-01
9.14261885796496e-01
7.96814262111418e-01
6.74702059254766e-01
5.14540975044552e-01
8.63717844858453e-01
2.44301931132465e-01
9.63632153631394e-01
8.71243196606348e-01
2.33782438598090e-01
7.56899163344888e-01
6.82821278170364e-01
5.82827921263704e-01
8.71991637478127e-01
1.46131627728377e-01
5.13511050838965e-01
5.51666781095875e-01
5.34475253771282e-01
3.02185396211302e-02
4.43597416421666e-02
3.81689757932800e-02
2.89531790033694e-01
9.39570421184808e-01
6.79212599278144e-01
6.88604945895158e-01
8.02567388900110e-01
1.62602289310760e-01
7.19904957497722e-01
5.79831807186494e-01
5.00180367583726e-01
4.48838418465726e-01
6.43691375317940e-01
8.69539413352651e-01
4.29785592109160e-01
7.52867776153754e-01
6.89080161638922e-01
3.58162829000971e-01
3.63380509172930e-01
6.93716200088637e-01
7.73188886791843e-01
2.02556501060501e-01
8.34636760323599e-01
7.67050598027209e-01
4.09123387233382e-02
4.11298275624804e-02
8.24402400390722e-01
1.36929350862743e-01
2.06285471710990e-02
6.52094583947374e-01
7.06205370724403e-01
3.25668349187841e-01
2.47071091667147e-01
8.79327542647302e-01
8.20193163186908e-01
5.66322674044548e-01
3.14348176152231e-01
5.74284032050150e-02
1.07985663421527e-01
9.02433324926899e-04
8.58497643666386e-01
3.15693848282037e-01
9.13922598180456e-01
5.59961178631273e-01
7.42239912183381e-01
4.66500338471503e-01
1.01988515402959e-01
9.87920298792675e-01
5.25550205871567e-01
6.67628476341709e-01
2.70978226496900e-01
3.41114033359590e-01
6.74691413810478e-01
2.46538552340571e-01
3.73137636278983e-01
9.82868217740665e-01
4.00249374306365e-01
4.35760217173392e-01
2.52815791005432e-01
4.92325079531916e-01
9.77048592009266e-01
6.67137151501754e-01
4.17894303307335e-01
1.15266121788225e-01
9.74390094316414e-01
3.23634046534998e-01
8.18175221552001e-01
8.16314474911950e-03
8.21774814341071e-01
1.76112342804388e-01
8.95261726836499e-01
7.66868199605468e-01
2.62830291408821e-01
4.24927938133568e-01
1.27453594073066e-01
4.31937565085112e-01
8.79583361386234e-01
5.85229029298643e-01
5.82960005044334e-01
6.89730627177663e-01
7.80060509843048e-01
4.87839846946684e-01
2.84406036581818e-01
5.23859530035369e-01
5.87111942170335e-02
1.89043546740394e-02
9.79738201256557e-02
2.78702605976538e-01
5.16327592622148e-01
1.67873658092422e-01
3.10415406156445e-01
8.53468592496535e-01
6.71675889939868e-01
8.11768536282952e-01
8.86799849665053e-01
5.73107441571977e-01
3.94408577488457e-01
1.88819933984743e-01
2.65106406924265e-01
8.88235848881838e-01
2.07514547780746e-01
3.93832086389106e-01
2.19850879455891e-01
8.91864667062551e-01
2.92689636131526e-01
8.99746053756453e-01
8.63466552001514e-01
5.69740289854453e-01
5.07290271687092e-01
2.99324429065192e-01
2.75562897056284e-01
2.50297936415921e-01
7.43454188006815e-01
9.43695848902239e-01
7.84760410033776e-01
5.97929328110061e-01
3.21698502402099e-01
9.82686782750047e-01
6.90272707461801e-02
2.21231997386480e-01
2.16794199972455e-01
3.00185462242933e-01
9.41243487224041e-01
7.24071759609427e-02
8.07076911668106e-01
3.73848895283707e-01
2.68825542209076e-01
4.44217716556711e-01
8.05497742260073e-01
1.07016470086465e-01
5.66625327199800e-02
8.38158618115923e-01
4.47366543547804e-01
8.92805150862497e-03
3.09082332185029e-03
1.65559656859665e-01
7.30795675748504e-01
8.39308332323829e-01
8.11673185699820e-01
6.41229295720064e-01
6.75677052619437e-01
7.41097446941617e-01
1.95162743547690e-01
3.95020693804772e-01
6.73061741520032e-01
7.86357655418708e-01
5.86817993722447e-01
8.18595249284171e-01
7.50839191075838e-01
7.86239768349096e-02
7.22109070821943e-01
4.98829306214709e-01
8.31300873422212e-01
6.47335530431281e-03
4.78551302135757e-01
9.92141623555315e-01
4.83429919687237e-01
4.50475279021489e-03
1.24434591511995e-01
5.39550670080352e-01
7.97083261019506e-01
9.62491341672283e-01
6.03687092560132e-01
9.56490452743141e-02
5.32915355506322e-02
5.98006629540823e-01
1.15171967511141e-01
1.70698290944675e-02
5.95366420218877e-01
1.69100446937578e-01
8.33770086583981e-01
1.89878898894905e-01
3.26141933137590e-01
1.72915957851772e-01
2.21260563948858e-01
2.77795993905413e-01
3.28479902161642e-01
1.95693657713523e-02
4.94653945735670e-01
6.48928254056636e-01
1.34171705372667e-02
8.33011752795791e-01
2.33113066187738e-01
7.25012180369355e-03
8.01085825347014e-01
5.41875659691607e-01
2.02747187082073e-01
2.34381319637787e-01
9.49616714446322e-01
7.92280467039276e-01
1.88144890784208e-01
5.15873542919268e-01
6.94520330604792e-01
7.50731374389670e-01
4.26977894446004e-01
2.80348035452825e-01
4.33682867506438e-01
9.40098202614942e-02
9.20292879296342e-01
6.53335156920484e-01
7.15456260252891e-01
9.36897679212318e-01
1.50574592871338e-01
9.98368076137215e-01
5.75969232353968e-01
6.40422634600304e-01
7.35295986695461e-02
7.84696687699269e-01
6.06727933026530e-01
2.93681784895877e-01
1.70670074569175e-01
9.83453280383927e-01
2.32226989201001e-03
3.75988263968264e-01
4.50686377629753e-01
8.75727414976639e-01
5.90570109547301e-01
4.41093662099403e-01
9.61829139571028e-01
6.74955086033572e-01
6.82482379312763e-01
6.50080224788264e-01
4.87443921714320e-02
3.91655661986647e-01
7.99631430516114e-01
2.34928698877900e-01
7.04130878474070e-01
8.73336297695985e-01
7.86032526662609e-01
8.72802448254329e-01
6.80371111825634e-01
1.23225096634332e-02
2.34087258462844e-01
2.59748860584837e-01
6.27897469116772e-01
5.18485351538304e-01
8.63844558450964e-01
1.72214683523486e-01
1.50251473189488e-01
3.58546642496625e-01
1.54333350396826e-01
8.69994948695229e-01
4.21886922094069e-01
1.83746741357355e-01
9.32550572685496e-01
8.27843454438494e-01
2.70259635858254e-01
2.46778834794776e-01
4.13375780260538e-01
8.80247838578792e-01
3.59998182830440e-01
2.85445749206800e-02
6.62298276320429e-01
7.54528151242901e-02
5.71491704275754e-01
9.76767818739666e-01
6.45319395546492e-01
8.88074252370489e-01
2.71374767539659e-01
6.63262176942903e-01
8.31173887818550e-01
4.31444278957917e-01
1.60129637302313e-01
6.71342776999728e-01
7.72129186979157e-01
9.84421997951854e-01
2.02074565011222e-01
6.31642440786455e-01
5.64977475390285e-02
3.18577813759828e-01
8.47800735581042e-01
9.83678112610555e-01
5.27861065312582e-01
8.00799820758227e-01
4.80251841087781e-01
2.95052980739548e-01
2.25092240744967e-01
2.83587709526229e-01
7.33627930491349e-01
6.92090146897253e-01
7.69112419547339e-01
2.47918662046923e-01
9.33104617054875e-01
5.58335449410991e-01
1.25543010794189e-01
2.79487145008192e-01
2.04725206826747e-01
9.00202854285497e-01
1.64298013046711e-01
9.38988583120587e-02
4.59009579808269e-02
3.11174158230046e-01
8.35259019800035e-01
4.23946530073714e-01
2.11833189529823e-01
5.45573550638946e-01
5.23683205758277e-01
3.44382508724408e-01
6.42443706519134e-01
8.75100298474647e-01
3.90233124504750e-01
3.80167425625538e-01
1.11895731690773e-02
3.24046655840041e-01
7.48303665747059e-01
5.44303720885748e-01
5.61991202143041e-01
8.06240789846098e-01
3.44779301854633e-01
2.58827453386772e-01
5.85418528799517e-01
8.36533442407017e-01
1.63709863879015e-01
6.67493911248836e-01
4.16534601357500e-01
4.38529141887800e-01
7.24237534278871e-01
1.81824739586847e-01
8.93364091848319e-02
9.24197695945484e-01
7.29689810306339e-01
8.01889683939600e-01
2.89830176763567e-01
8.42402057508297e-01
9.09685844206584e-01
1.08676840246270e-01
2.71990425926399e-01
3.86952865076958e-01
9.99837736029267e-01
4.15316339466009e-01
9.53669617687965e-01
1.20539934841983e-01
1.99768580226263e-01
6.63474264104446e-02
5.88167817693490e-02
2.92079265409177e-01
8.27533216679404e-01
8.37312574178881e-01
4.38205651603900e-01
5.37298689689149e-01
8.33922312765351e-01
8.02720669231793e-01
9.14473716401479e-01
5.64468862335260e-01
4.22673690664657e-01
8.18997022171145e-01
9.61389635997415e-01
3.11197721880273e-01
8.88156700247677e-01
9.36070683886699e-01
7.38300648886367e-02
4.31280521633571e-01
5.80868215208332e-02
7.06153421165043e-01
1.06238199637714e-01
4.57247132623196e-01
3.23636968564849e-01
2.99984239142771e-01
8.18512005595290e-01
8.18492319888574e-01
7.25039017807682e-02
8.40678912728529e-01
8.47499252558435e-01
9.85654164662672e-01
6.41603007791947e-01
7.10609426292053e-01
3.49533059684344e-01
8.22305358485388e-01
7.20931234030974e-01
1.66974525123434e-01
7.06731436283819e-01
3.67342551140979e-01
6.57119948749218e-01
3.63360570827428e-01
8.00989242077643e-02
6.33013062729234e-01
6.75124561253615e-01
7.72607898810102e-01
9.55168168349641e-01
5.11706460557366e-01
3.45987432087302e-01
7.34382274649907e-01
7.81896237072590e-01
3.78485638374418e-01
3.35512854175871e-01
9.18863425294789e-01
8.02880239951402e-02
4.74239684028135e-01
2.69173504376743e-01
7.00171420569530e-01
4.83138970280874e-01
5.89945903710437e-02
4.54999203272199e-01
4.57323639937555e-01
6.57076699744393e-01
9.83727439032057e-01
8.20944733436950e-01
7.78365250332795e-01
4.82915580618745e-01
5.83172957719509e-01
1.14892224191694e-01
5.17862828850679e-01
3.08137839493226e-01
1.93866611775666e-01
2.44627184902546e-01
5.63154054343396e-01
6.96054623517040e-01
6.83769474413032e-01
1.47856720854661e-01
1.58004963582319e-01
8.54154095980337e-01
9.34178551065469e-01
1.73563793930784e-01
1.18093601869517e-01
4.52514635294995e-02
4.53539628905077e-01
3.10249010833068e-01
1.39417507676768e-01
7.72717738801342e-01
4.58436565410313e-01
3.07974661676998e-01
5.79002464965552e-01
9.77100504112337e-01
4.50326914210367e-01
6.16103261414958e-01
8.66636463322545e-02
5.65208273592527e-01
3.53258615492084e-01
4.52362408814441e-02
4.16350534186575e-01
4.37239193762496e-02
6.40489318646445e-01
7.70659527315250e-01
5.10339307544635e-01
9.04748437106258e-01
1.92601475031107e-01
4.81932432916429e-01
5.71089043534089e-01
8.53481737267430e-01
8.51479839007489e-01
8.02725940703998e-01
4.34567841597541e-01
2.68475663000284e-01
8.66205261865335e-01
1.21649769213636e-01
8.80131693211516e-01
9.44355869678488e-01
5.00268092606349e-01
6.14542417642866e-01
2.40218904283294e-01
1.33814669189453e-01
5.67199885216227e-01
4.78341087940987e-01
5.94823708210880e-01
1.58640475212005e-01
4.16225766104683e-02
4.43043762288366e-01
3.45350672954518e-01
4.11539361338563e-01
2.80200016252179e-01
7.24483003022992e-02
9.32187336216238e-01
3.44238900589745e-01
3.72339183693373e-01
5.67718449711648e-01
3.31450213499707e-01
2.72027601040299e-01
4.31548257663205e-01
6.99053264645167e-01
6.17634139372620e-01
8.54067448288105e-01
6.76971198297252e-01
2.29520978104171e-01
6.10817049524154e-01
4.72342368096117e-01
5.69465496560028e-02
1.02345033342692e-01
9.03135641736441e-01
4.15800564440519e-01
7.99732211742989e-02
8.99877440874620e-01
8.75680786519813e-01
7.30916609837954e-01
3.55767120406988e-01
3.14083766169493e-01
3.76043135432791e-01
8.96931748067223e-01
1.60592998969912e-02
6.38394599556501e-01
1.96825521668927e-02
8.25255498602650e-01
1.81905563561529e-01
2.59451838481630e-01
7.81679561244660e-01
8.38658541778624e-01
8.20078731185329e-01
2.27157270979404e-01
8.14154497155418e-01
6.77589786752061e-01
4.15124603979041e-01
1.49724137349430e-02
7.14767408469480e-01
8.53241884683633e-01
2.34944652815536e-02
3.20568779931985e-01
2.44625267131854e-01
9.42309903674002e-01
8.80350018524019e-01
3.65139249227310e-01
2.14849977326201e-01
5.88457067974247e-01
1.23547618438906e-01
7.93323369086353e-01
6.52438059871337e-01
4.95068735009842e-01
8.24444610963095e-01
9.20971742225286e-01
2.43213162978468e-01
5.29804935101199e-02
9.76730821207578e-01
8.93673641910816e-01
3.02735380720303e-01
6.11244302804468e-01
8.02322156375967e-01
4.05636523601199e-01
4.51041473046685e-01
3.46672641721612e-01
2.67981779015707e-01
4.90301936221558e-01
2.35747173007035e-01
8.14802383625331e-01
9.25679742807803e-01
7.00905188662374e-01
4.00081737696624e-01
2.03704101165091e-01
2.80593042316345e-01
2.23060236637103e-01
8.87894545808177e-01
6.86491328330587e-01
2.39607548468787e-01
2.16861053748628e-01
4.25564705637628e-01
7.44628374465004e-01
8.52818740141822e-02
1.17463830616377e-01
1.65990972314871e-01
4.54321922387072e-02
3.36756593475740e-01
4.88224212449399e-01
2.94258231231036e-01
9.71540385471851e-01
7.88720523463807e-01
4.63738669614689e-02
7.63359839418001e-01
1.13800593795456e-01
4.80759753357723e-01
6.34037820564843e-01
4.93957587831941e-01
5.61101733812521e-01
1.92581913227071e-01
9.63366640625082e-01
6.68592251291419e-01
7.00627317113923e-01
2.60111758174281e-01
9.96905219059987e-01
9.13545669452295e-01
6.33433698145519e-01
1.37546599364560e-01
2.50718183115871e-01
9.02009646422579e-01
9.13172915449962e-01
8.89406261358261e-01
7.73276523890746e-01
6.92319460444502e-03
4.03861097244018e-01
9.97826434909308e-01
5.44518169177338e-01
5.65843789234511e-01
6.03177684589714e-01
7.50723875742734e-01
4.11923153370743e-02
4.94546269814266e-01
7.64637914014722e-01
2.04689559894883e-01
3.01337185552674e-01
5.66456885581803e-01
6.16395616157714e-02
5.05009760857325e-01
5.86905737723178e-01
9.78048108850768e-01
7.46314121328078e-02
5.43279924681697e-01
8.99496706376952e-01
1.46358726058833e-01
6.68799645970186e-01
6.06610330352562e-01
4.26497652200973e-01
1.85064602250782e-02
1.95909470292493e-01
5.20278055815614e-01
1.11019982284467e-01
3.77767381510102e-01
2.25556460387997e-01
8.91548470336758e-01
9.62626237280095e-01
6.98489950771085e-01
9.56443110401450e-01
1.82642490655329e-01
8.49362886746311e-01
5.58253275003247e-01
6.59773677527496e-01
8.81277172563504e-01
9.81781859439861e-01
5.31302424773004e-01
6.13992718846061e-01
4.54896892367154e-01
8.84607982082862e-01
2.63543179375974e-01
4.47549850616973e-01
4.59919972635784e-01
8.40305602204691e-01
2.64265007307595e-01
8.86377134109749e-01
4.97975593892744e-01
7.81550708631116e-01
3.47804261125941e-01
4.32800653841052e-01
8.16894777549049e-01
1.33012584858048e-01
3.49683286124793e-01
1.78458961614696e-01
4.92356788629402e-01
9.63458393243945e-01
1.01100574515470e-01
8.27714490130122e-01
2.27536529374830e-01
3.62176484479855e-01
1.20448461830623e-01
3.42556101829192e-01
5.58017260395119e-01
7.52428863310209e-02
9.10556612916867e-02
1.23897750534914e-02
6.91767817481031e-01
9.08493087469889e-01
2.06975289091270e-01
6.51332599452289e-01
6.01941471216056e-01
4.36094410738533e-01
1.60284924739996e-01
3.47251761789675e-02
8.22369394412284e-01
4.45735321085616e-01
4.78834317060069e-01
2.02037386120004e-01
1.47824410579564e-01
9.82969868303881e-01
7.23004261843936e-01
4.18462080200915e-01
1.87665498498584e-01
7.16995021226488e-01
1.98371124414682e-02
5.87008451805691e-01
1.98312566233576e-01
7.56816675806797e-01
4.04553444346722e-01
8.94710035000626e-01
3.07248793298013e-01
1.31830808068258e-01
1.79354674320579e-01
1.80669608944150e-01
9.03653646997188e-01
1.22319135222320e-01
9.20688365050156e-01
5.01363144367971e-01
6.13819763919887e-01
7.44663398372306e-01
6.02496001151183e-01
6.89011931831079e-01
2.67470565007186e-01
2.03351588992784e-01
3.15666537432536e-01
1.62048873712003e-01
7.66472338874524e-01
8.24317237641598e-01
7.51948293639737e-02
9.67698018163889e-01
2.19293190038750e-01
5.30665282786843e-01
1.57896840360862e-01
5.02580844468850e-02
5.70255925904437e-01
9.60013267859495e-01
4.61425418313340e-01
8.11788405579800e-01
7.29051030624112e-01
3.33873125642399e-01
9.51325612083272e-01
6.23454888631965e-01
2.59467353072267e-01
6.09183643301305e-01
7.36418566131639e-01
5.91083371778375e-01
1.00416136526445e-01
9.40181486115525e-01
6.95475431113878e-01
1.18820428380485e-01
6.59387818530755e-01
8.91119966479933e-01
9.07652907103556e-01
8.58801215729379e-01
1.13526865976780e-02
6.02083055685426e-01
4.65292669080142e-03
3.23612254088615e-01
7.43856790896059e-01
9.54632165485661e-01
5.58158789791468e-01
5.06049038290856e-01
7.64471158290824e-01
5.37809088673010e-01
7.33440561315370e-01
1.81248574755934e-02
5.69437080394513e-01
8.95827887749559e-01
7.00184982762453e-01
9.09925500411485e-01
4.68171501507542e-03
8.45824023082331e-02
1.83139326733382e-01
2.01448486558755e-02
5.11479057525104e-01
4.37636796204584e-01
9.62363881200963e-01
2.94568149131946e-01
2.91212007323900e-01
9.47045978676433e-01
1.92079749061978e-01
2.02933624777637e-02
4.90497205037340e-01
8.65850801077855e-01
4.19279410921729e-01
4.23065742577467e-01
3.06993458089136e-01
9.46134979105410e-01
6.02566022013671e-01
5.62157738174325e-01
6.03950029814182e-02
2.72513307208576e-02
4.13499707487529e-01
2.89455948626329e-01
3.57635473923340e-02
7.03401381373579e-01
1.81065833179320e-01
7.90109938449160e-01
2.54633843517653e-02
7.43455780912890e-01
9.23528175094395e-01
3.64927768633050e-01
9.78630385981369e-01
6.81553497423790e-01
4.06689349393860e-01
2.10587372878117e-01
5.17011083971798e-01
9.85919299297331e-01
7.45761850051542e-01
7.98085535692840e-01
2.96571699093053e-01
3.98940012576939e-01
9.30435711656356e-01
1.42514665855178e-01
8.02192741619650e-01
9.77370853306040e-01
2.78997936708461e-02
8.27343023291029e-01
7.21437554358052e-01
5.26053331190489e-02
7.11965377048159e-02
8.03024065483527e-01
1.07120247854632e-01
3.21430034886777e-01
9.61843242086203e-01
2.40535332367536e-01
9.31239407187607e-01
9.28719253109352e-01
8.60092922412979e-01
4.38001361091017e-01
9.73231616454925e-02
8.82296958685483e-01
5.54267236341929e-01
7.14750770998553e-01
8.21265689119718e-02
4.44783832641527e-01
9.44542508029686e-01
3.49422254693168e-01
6.99127717727746e-02
8.52266879071195e-02
9.01497523079929e-01
4.06432067252093e-01
3.07053250171382e-02
6.04837104868812e-01
3.68248293630145e-01
8.74718163015810e-01
6.55564442290971e-01
9.44576081912636e-02
9.49300646877241e-01
9.66021518930047e-01
6.38070550170961e-01
8.35001855445111e-01
6.87423751098247e-01
1.70578869947166e-01
3.22996186524122e-01
4.61525602544509e-01
8.02203410054414e-01
5.68547761349799e-01
5.00723591408493e-01
4.98604798575827e-01
5.61885777106218e-01
1.57076214465082e-01
1.24652118246514e-01
5.84445432656703e-01
1.70617541124757e-01
2.63355761180209e-01
6.51875390286769e-01
1.46490645639848e-01
1.56461157995124e-01
7.79510226107598e-01
8.18595454498728e-02
7.25345674634792e-01
8.60596891824589e-01
7.63582452657199e-01
8.59193091583020e-01
6.37930794573416e-02
9.22141195960136e-01
1.67310085395119e-01
6.30754383496753e-01
5.43721832547458e-01
3.65566631395422e-01
8.21720069559416e-02
3.41336276087652e-01
4.79398825554761e-01
9.59479845207608e-01
1.61016485994854e-01
4.00455970985026e-01
5.83191616801434e-01
4.34677532862563e-01
9.90708595853056e-01
3.48713701418613e-01
3.59125066060470e-01
2.44857893096948e-01
4.54226708121118e-01
9.28091559403187e-01
3.54145095113643e-01
8.60256725963669e-01
8.45191533240288e-01
3.49636711841583e-01
5.89787288076317e-01
5.71451343514922e-01
4.40865758559505e-01
3.01585487745417e-01
9.47414803352759e-01
9.12608104051451e-01
8.43403851917612e-01
5.00735238350479e-01
6.01355204786612e-01
9.50295150595477e-01
1.81714890791435e-01
1.97192257868448e-01
2.20064101946608e-01
1.58486662542983e-01
3.18388392074678e-01
6.11776367320528e-02
7.00264155730557e-01
2.31147383401086e-01
3.82038684119028e-01
7.04876186831516e-03
2.67083881836534e-01
7.91196538340393e-01
6.74855770487821e-01
6.25312740909867e-02
9.22019631254315e-02
5.09233957627616e-01
5.63203352597833e-01
4.30819209578171e-01
7.22465357956925e-02
7.39237292673243e-01
8.56574543297870e-01
1.46913234884989e-02
4.58180139190622e-01
7.81329159198351e-01
8.15303457518256e-01
4.21905505160231e-01
2.90081986148113e-01
7.01311667433949e-01
3.83519362712431e-01
2.77100392015057e-01
5.92712657682280e-01
3.98085938742023e-01
5.02864542531653e-01
7.76634744063138e-01
5.45809394053367e-01
7.26948941961152e-01
9.59868288259063e-02
3.47230656803369e-01
9.79645465781351e-01
1.23092823258920e-01
2.21339207172057e-01
2.11383059455198e-01
3.40396817164048e-02
5.25306927321294e-01
9.46824825419925e-02
2.65965214225208e-01
5.84392506533264e-01
7.71755765209355e-01
3.48233104389923e-01
7.44634351112237e-01
6.35835723706877e-02
2.43664645305754e-01
5.63437279082736e-02
5.83510243941764e-01
1.10887760130415e-01
4.66292921939425e-02
7.56438537158278e-01
1.73208431499321e-01
7.31607567767685e-01
1.65459386272950e-01
6.51900081516257e-01
1.66099542559566e-01
4.67754771558306e-01
1.26760772912484e-01
8.00102301644902e-01
1.09741990931574e-01
6.60478184689649e-01
2.06889884702493e-01
2.54750167395204e-01
3.80186358263487e-01
6.25419943862746e-01
8.07192878492534e-01
3.02471430990158e-01
3.28835316935133e-01
4.45017077992123e-01
8.79753406692589e-01
6.51527058964440e-01
5.14014685721164e-01
5.42561882893560e-01
2.88830424641533e-01
4.99194340952025e-01
2.18009039832076e-01
6.14285025939356e-01
5.82050277127026e-01
1.12534722177741e-01
7.71666254347596e-01
4.66048169043477e-01
7.30214631237613e-01
8.45231075824539e-01
8.64776734634225e-01
6.08078688256373e-01
4.63082605767808e-01
2.18899992056514e-01
6.93009429262852e-01
9.50126494986593e-01
9.83744446074534e-01
6.33086843627491e-01
1.06170787082682e-01
1.12662944971727e-01
9.33516811305245e-01
6.62571410835008e-01
5.93451625985851e-01
6.35913068285992e-01
2.37777106242707e-01
4.35977356161866e-01
7.28957681430828e-01
9.64394273899931e-01
5.29746198477592e-01
7.50926511891978e-01
1.35575507814810e-01
4.70820017978916e-02
3.61302834393680e-02
7.61932368269127e-01
8.02852621158946e-01
4.79976344200121e-01
8.64328518709150e-01
8.04048146243203e-01
6.80659317435661e-02
7.03429016581923e-01
6.24624380654338e-01
7.74554473241384e-01
6.46931767305976e-01
9.56384799786199e-01
1.08679316826381e-01
8.28981881433668e-01
9.02977391788698e-01
1.49939472728501e-01
4.39605571513838e-01
2.95968909195391e-01
7.50259442454518e-01
7.54101972208835e-01
8.63740411412358e-02
1.28214083663584e-01
9.68875987896364e-01
5.54624620485284e-01
1.73897042171933e-01
1.79109086094298e-01
5.04536025050495e-01
2.00346408585828e-01
3.81393467617881e-01
8.05535386309355e-01
1.60133089441474e-01
1.78651653151253e-01
7.94856729440919e-01
5.59010845407158e-01
5.03234331569547e-01
6.50693662001550e-02
5.45639414332800e-01
9.47117766762099e-01
4.36785022699166e-01
5.32522923525017e-01
4.74416059889635e-01
4.45210124202901e-01
8.50311175118021e-01
4.71656982581280e-01
6.28691414521578e-02
8.08869405051569e-01
4.04621657888319e-01
1.33722558496825e-02
7.89665581751417e-01
7.42544901931548e-01
6.06546497398406e-01
8.52143903089961e-01
7.43898991809970e-01
2.51508331774004e-01
4.41142400722262e-01
2.75221515147821e-01
3.13213178733181e-01
3.12712704961735e-01
3.05739221658348e-02
9.15970915180413e-01
3.77291555600897e-01
9.87869564821739e-01
7.63262816958133e-01
4.48637679773130e-01
1.24971012611854e-01
6.74834209256770e-01
6.21779790467097e-01
4.91106541979528e-01
6.16303282548303e-03
9.59699956535719e-01
4.16693291386360e-01
4.44201606677372e-01
6.28562697571959e-01
6.83388662641124e-01
6.97807167460857e-01
2.91949848349551e-01
8.01615455242027e-01
5.72914775683240e-01
4.31419871694889e-01
4.87072720206169e-01
8.48931570993314e-01
4.27900436499451e-01
5.45370787941474e-01
6.72253090032258e-01
8.80959307052544e-01
3.22191058289369e-01
2.80875858346523e-01
6.41098700208833e-01
9.64457117339655e-01
4.78939046773978e-01
8.73838048901010e-01
1.04072894468354e-01
9.10382577562696e-01
7.59196226895011e-02
8.32033162328042e-01
8.05604124727889e-01
2.40754464050372e-01
5.09151071672161e-02
5.84161543954756e-01
3.04437164726782e-01
3.58899964186002e-01
9.55624657389924e-01
9.03856664225542e-01
3.69946802091877e-01
5.66730929342702e-01
2.58590937123499e-01
1.77361200991304e-01
5.61696268431819e-01
6.10090524691026e-01
2.92862125954710e-01
1.48510956065065e-01
8.94371497889600e-01
3.95372553443442e-02
2.34804199653759e-01
9.81452006840066e-01
6.18603712697439e-01
2.45354791097468e-01
1.88110732490701e-01
9.87424435265175e-01
9.84636471112259e-02
9.58478899359756e-01
7.03947970446405e-01
2.17951401952196e-01
2.89524533404071e-01
6.85715676354780e-01
5.20123735704409e-01
4.18751084320808e-02
2.26830335922282e-02
2.03647324461409e-01
7.68154539172580e-01
2.90057179986694e-01
3.70408002019746e-01
1.95601534034725e-01
6.12858327618669e-01
4.37577096821447e-01
5.97634627854554e-01
1.53712707076439e-01
9.60226615288378e-01
2.41608072010501e-01
6.91188091349863e-01
6.57313094182695e-01
3.25665310869345e-01
5.79110845369926e-01
1.74771219602198e-01
2.61800044297211e-02
3.64581136333490e-01
3.31808126944421e-01
9.15113602723029e-01
5.97795813171199e-01
9.23853062874061e-01
3.88865634732431e-01
7.38780292878569e-01
5.81332701395141e-01
2.06973542549557e-02
7.77697624600860e-01
9.32386808181334e-01
5.23320156658863e-01
8.66843957535277e-01
4.64376100979960e-01
4.65980490221424e-01
4.28740629014736e-01
9.87825128510406e-01
1.58071654601498e-01
4.87262498960431e-01
4.64813349761871e-01
6.71174937312667e-01
5.47887497418118e-01
5.07312388818306e-01
3.58550009732644e-01
1.91161827893892e-01
4.63072937454074e-02
1.91980888111652e-01
9.52355122542972e-01
3.69132835284591e-01
9.40558709105472e-01
6.30204927831571e-01
5.36446126223042e-01
5.75783278816323e-01
7.39430792313244e-02
2.56543365249425e-01
1.30616362996349e-02
6.43296500636185e-01
6.38669146654040e-01
9.92452090741955e-01
8.67616085291943e-01
7.37242831036085e-01
1.74124368399938e-01
7.65180507681543e-01
5.89570047382829e-01
3.97965253676935e-03
5.91835708990723e-01
9.65393909825477e-01
3.52998035573428e-01
8.61894043084168e-01
4.59005921995750e-01
8.06484279248547e-01
1.69357695396210e-01
1.03939348424573e-01
2.16136805126093e-01
6.37719224355312e-01
6.25941356153073e-01
9.59795316840029e-01
6.78781081682503e-01
9.84851909187263e-01
3.73770616875081e-01
4.75344881724939e-01
4.45983849987801e-01
4.80494367597497e-02
8.42099468127548e-02
6.44163857658526e-01
9.29118218857186e-01
5.60740879680009e-01
9.30478083552207e-01
7.58342018624419e-02
3.50866886254361e-01
7.31020494550950e-01
7.89209833905357e-01
3.44377282319773e-01
3.42385445114114e-01
6.73648657907178e-01
6.49131852874523e-02
9.82442637534043e-01
9.49221983489420e-01
5.71088889607001e-01
2.97957482263122e-01
2.28593421943247e-02
8.66330580422028e-01
1.89321615409599e-01
1.15987285575496e-01
6.07267159244597e-01
5.50099998656676e-01
8.96784790331093e-01
1.22418513335035e-01
3.68421384100494e-01
3.04714520158105e-01
2.11337771302456e-02
9.89528514441131e-01
8.91064764054982e-01
3.13171645818638e-01
1.41930459975733e-01
8.07994161903389e-01
1.37848291090292e-01
9.17366039290096e-02
5.55110263603216e-01
6.45075597767082e-01
7.12176033359367e-01
7.06221209288963e-01
1.71216180749401e-01
4.49453779854068e-01
9.50881332391806e-01
9.14253756612156e-01
3.52844501857586e-01
3.04405917913113e-01
1.76373043011620e-01
6.70291409648080e-01
6.92905543650451e-01
3.45310529511825e-01
9.65637220572053e-01
3.08670302443789e-01
8.13613261914824e-01
5.36379706142375e-01
9.46898570228288e-01
8.28490884216715e-01
7.52227290593306e-01
7.48647825891344e-02
2.38775281949990e-01
3.28732491988223e-01
1.82581242730060e-01
6.40648722627649e-01
3.35472852748862e-01
7.72509345291448e-02
5.29659182293740e-01
4.31807270884603e-01
7.74131976759989e-02
7.91743372352128e-01
3.49824093281465e-01
1.34103382710745e-01
7.62804097766063e-01
4.28023821089117e-01
4.14459080087897e-01
9.06705874647357e-01
2.77238571490784e-01
3.76214853413648e-02
1.00999489151003e-01
1.40316051382543e-01
3.88163371205258e-01
6.87421668618905e-01
3.92186243114966e-02
8.46362316136426e-01
8.44933649028817e-01
6.72234003637239e-01
3.26569255328446e-01
7.59377220806301e-01
8.88985588602322e-01
5.19312156270982e-01
9.00991296710121e-01
6.35759230868458e-01
2.46093755206960e-01
2.95246984508340e-01
6.36086868506604e-01
6.23613413664029e-01
5.21969229950334e-01
5.84443260296796e-03
8.64342595624424e-01
6.99188476555099e-01
3.80332059890374e-01
5.87693483323011e-01
5.47135823804682e-01
2.50471825830644e-01
7.05410896846518e-01
7.48640138284103e-02
2.95999019481401e-01
9.64413445855814e-01
5.09516595402177e-01
4.51287039501829e-01
9.16094729278776e-01
3.13472457076118e-01
7.98597811688895e-04
3.90022784404127e-01
4.32388011213317e-01
5.18681868807607e-01
4.31107863432045e-01
9.81537387653321e-01
3.40802771839731e-01
7.33453127622872e-02
6.01911913483070e-01
7.19712343797057e-01
3.95906489089172e-01
3.62956757593266e-01
2.99621211711712e-01
1.38763484733431e-01
7.13694201297590e-01
8.47128652471279e-01
1.38426626121756e-01
9.74688947443416e-01
3.59152765827144e-01
8.96114893438239e-01
9.30460791085575e-01
2.85991285556605e-01
5.17421997840918e-01
3.82877085609560e-01
1.45997115105948e-01
8.44615128346374e-01
9.60508702130280e-01
3.50879355852054e-01
7.94006559848560e-01
3.06896132853379e-01
4.93001223081967e-01
4.25354992519440e-01
5.11790510230451e-01
5.60086560410312e-01
7.25381886897303e-01
9.57200893044961e-01
9.55876808151666e-01
2.84390855795321e-01
6.00778685626816e-01
8.32749617863557e-01
9.98619091834402e-01
4.88744904855576e-03
8.17747704389016e-01
8.24994416293270e-01
6.86701347980781e-01
9.08316969559809e-01
2.16757969394071e-01
9.92873153176222e-01
2.93843686376289e-01
5.09033211947539e-01
5.60513478979986e-02
6.94303033253990e-01
6.30776627243121e-02
2.73826528020994e-01
7.84436622230788e-01
1.42971177002724e-01
1.16226784712266e-01
8.53712126388409e-01
8.02187669844469e-01
8.09636982297002e-03
6.51498317283650e-01
2.46539749622952e-01
7.33038906757817e-02
3.22484323552443e-01
5.97913659782026e-02
1.73498523586777e-01
1.01512579304432e-01
1.32281304168252e-01
6.73499243203188e-01
3.66664626667252e-01
5.82244145048215e-01
8.07880905089551e-01
8.39439898816619e-01
5.72107845681417e-01
5.22363620906276e-01
1.28441352920186e-01
1.10069169396890e-01
7.25128485081710e-01
2.74969780166745e-01
2.91317356179850e-01
1.81513249315120e-01
8.45452505741396e-01
3.84715565374513e-01
9.66396122541992e-01
8.80509882120237e-01
8.87333767004262e-01
5.91225987902408e-01
1.83037661282383e-01
7.07812533013438e-01
7.74324861956737e-01
3.80895709840791e-01
7.58702908633588e-01
5.20994447009941e-01
4.24910300260579e-01
9.26316009709879e-02
9.87216234480055e-01
6.04261174512548e-01
3.93850323760572e-01
3.96254804026538e-01
2.84770951242397e-01
9.03482526692999e-01
5.47525089639342e-02
4.38481096060520e-01
7.42311911384052e-01
4.16030589267843e-01
4.52210219741709e-01
2.87883593777178e-01
6.04871095142821e-01
8.23125704111351e-01
9.75719742720833e-02
7.33272073948478e-01
8.66471832574806e-01
6.04296571682572e-01
4.84604035391681e-01
8.30886989489169e-01
2.65088968618099e-04
3.15029000611765e-01
8.63126112324228e-01
5.85162303548614e-01
5.22412868823618e-01
6.58488209222160e-01
4.45351562392384e-01
5.11165175059795e-01
7.28444396324388e-02
7.49185162945224e-02
2.80561153869858e-01
1.70740754679047e-01
2.26886363481072e-01
8.39011464583072e-01
6.57479347602385e-03
1.57459468672059e-01
9.83943872898868e-01
7.74886678079648e-01
2.87656542758803e-01
8.30360091731730e-03
5.83618079356946e-01
6.74643729744803e-01
2.34407403903026e-01
4.70913239998089e-01
4.78102821102453e-01
3.08501233603319e-02
8.48095001632866e-01
7.05203504114546e-01
1.33527577862422e-01
7.88741638151205e-01
1.35519976743547e-01
4.02533253437759e-01
7.88100912881968e-02
4.36017945675951e-01
4.24366716507465e-01
6.49849191370206e-01
7.14106454060851e-01
1.41164149215008e-01
9.08309691742866e-01
9.20556863301171e-02
8.29560658999396e-01
2.30945371254080e-01
6.35157195970759e-01
2.78869198307422e-01
1.14518703648747e-02
4.38849119017097e-01
7.45384610329969e-01
1.26491774609469e-01
8.29700600647949e-01
7.32459303181144e-01
2.07248675912172e-01
7.37377833947782e-01
8.77777485492007e-01
6.45913656489602e-01
2.59677610338215e-01
6.34157295365582e-01
8.69353801285030e-01
7.32729047201487e-01
8.55120967737038e-01
9.56854347537669e-01
7.49418104991839e-01
3.67574547749937e-01
6.13495056139800e-02
8.59089401019781e-01
8.01845308823531e-01
5.97813569425602e-01
9.83499604908027e-01
4.63677043149033e-01
9.01243980213822e-01
9.38309258014570e-01
8.24495830438081e-01
1.45987408531863e-01
6.67523273020197e-01
2.10050346234626e-01
6.78443749485398e-01
2.25231169229397e-01
9.78270947295444e-01
8.67731278515230e-01
1.23424841988380e-01
9.98558194552752e-01
7.18463561322687e-01
8.18023257196083e-02
1.36275144152398e-01
4.05951769188126e-01
6.06470601144588e-01
4.04954952780260e-01
3.48918411096893e-01
5.13043489506089e-01
1.45574954762438e-01
9.94633809219495e-01
1.83441732679701e-04
1.95863242746437e-01
5.74411505040146e-01
8.61801133509334e-01
8.45839097859898e-01
7.19873969042061e-01
1.46844961016803e-01
4.72654036896926e-01
1.96544750772949e-01
6.11799371614496e-01
4.52406296287230e-01
7.89752083677530e-01
3.62983072711910e-01
2.13236692216278e-01
9.02629537917420e-01
2.05493470438114e-01
5.75177935635764e-01
7.00521382526878e-01
9.69374482936733e-01
6.82055532857246e-01
9.81974517899221e-01
1.59631563657349e-01
7.86240865724544e-01
5.32310787101520e-01
2.11627414949953e-01
3.92034768464979e-02
6.97395793348711e-01
1.57291251013820e-01
4.96876455513445e-01
4.56073773133490e-01
8.27904422155559e-01
6.22397342743597e-03
5.44462380713461e-01
6.39487124303563e-01
5.30384309204391e-02
4.85311118979514e-01
8.29810668757555e-02
4.15313598605965e-01
7.29746486832753e-01
8.18430814456762e-01
3.99950151361944e-01
5.65302475117369e-01
1.72300153328450e-02
5.49902832992211e-02
3.61372755505030e-01
9.03364995435852e-01
5.27462318084931e-01
7.63164215380225e-01
3.11755224834781e-01
3.61493617492546e-01
4.09462829215557e-01
5.18536595013130e-01
5.85744381409135e-01
2.64444951456687e-02
7.70734341620691e-01
9.54839532788881e-01
2.49715422315347e-01
9.03078859058917e-01
4.42313189483895e-01
6.36833784675500e-01
6.58654256209370e-01
1.87752566851840e-02
5.74129290737704e-01
3.96697151800057e-01
7.26471239194639e-01
9.33463771978089e-01
5.13739833883848e-01
4.86923793246242e-01
2.21747357540502e-01
9.75198160310652e-01
6.31815271872516e-01
2.21662971138271e-01
3.38948917951020e-01
5.67249520268664e-01
1.81908356866141e-01
8.37374595739932e-01
2.60683033016244e-01
3.20533890471196e-01
8.44860053390205e-01
4.29745581217515e-01
4.00894659179722e-01
4.54802267347201e-01
8.64757342700229e-01
4.13176330267251e-01
4.30756570380707e-01
8.52108605846582e-01
4.14127579007216e-02
5.95848534843281e-01
3.67049210486943e-01
5.97521590740291e-01
5.48106726743424e-01
3.66595111128275e-01
1.81644117304447e-03
5.23696781900639e-01
2.97383959958472e-02
5.71003302110720e-01
4.00143123373872e-01
2.04663642381733e-01
7.69477809071987e-01
7.99798017664403e-01
8.80444656025142e-02
1.49962425618169e-01
3.52032709872336e-01
8.66922636187032e-01
9.28674979829682e-01
1.76218838358823e-01
8.36480299393049e-01
8.20463773480948e-01
8.19048713089237e-01
7.99224693258261e-01
3.26535970903654e-01
9.34024721593952e-01
2.20777368604106e-01
2.14133987979305e-01
7.21822789062196e-01
6.94522043129983e-01
3.88399807448688e-01
7.19314911933289e-01
2.83493679979253e-01
1.03631358973572e-01
5.95324051822525e-01
6.06639228111333e-01
6.64177792479646e-01
8.41480094074098e-01
2.80937062548798e-01
8.52490553166565e-01
5.91529989677265e-01
5.62483969730209e-01
5.26708791291263e-01
7.71805921183651e-01
3.71201889710906e-01
2.59105459920470e-01
3.45807965982866e-01
4.87149295121198e-02
6.45746720930198e-01
1.10862443106150e-01
3.18024189618350e-02
1.45775346927929e-01
6.47385760579596e-01
9.62261560168777e-01
6.34950848805790e-01
2.41138265409679e-01
6.69929119050874e-01
7.53907426685870e-01
1.85343644825702e-01
8.81913987737544e-01
6.95837287726495e-01
2.38102950098175e-01
9.78947314369412e-01
4.43364957707562e-01
6.00120246818765e-01
3.07499547423447e-01
4.27285638347712e-01
6.51034357503288e-01
8.21217444578674e-01
2.00208874810869e-01
9.49947890539373e-02
3.76555588725489e-01
1.70477822674842e-03
5.03338515104579e-01
1.00018782628137e-01
4.49279001998151e-01
7.43261770026182e-01
8.66136166598388e-01
3.75929537162520e-01
3.93226906148227e-01
5.58358682203164e-01
9.44602455945072e-01
5.52903338539058e-01
7.70662766200291e-01
3.23593135959565e-01
4.76933282242632e-01
7.85596264281006e-01
2.39411276436833e-01
6.74833085589381e-01
2.53042070176882e-01
9.75670563540562e-01
8.84616042237002e-01
2.55601648122456e-01
2.29630985229790e-02
3.28609786638236e-01
8.09349272809333e-01
3.76638384905554e-01
3.96147982281386e-01
2.91770345865952e-02
5.03234565508062e-01
7.46668135308001e-01
9.62425267785181e-01
7.00782857324310e-01
2.58931978558231e-01
9.13375517263264e-01
6.73888490736515e-01
2.64979306738480e-01
2.28877541386340e-01
1.54888292688095e-01
2.30560845742346e-01
4.90303225783752e-01
5.37671347530109e-01
6.23845156119999e-01
1.46121247320881e-01
5.84890541332744e-01
1.02709228361223e-01
3.73299761672158e-01
3.24853385990544e-01
6.67191354683747e-01
5.87997938648492e-02
4.26585371046411e-02
2.30735603990106e-01
2.57646849946884e-01
6.05696191017981e-01
8.54922127531406e-01
3.04163942863465e-01
6.52888585132661e-01
4.01234994843789e-01
9.21821435462051e-01
3.68306192641184e-01
1.27305858959314e-01
9.12304495863826e-01
4.02030301862186e-01
3.06218645545926e-01
1.90041850491750e-01
7.10586638623199e-01
1.34263277798305e-01
2.64588804473201e-01
9.70914204878366e-01
7.39292150387353e-01
7.27182680765370e-01
2.45946155993772e-01
9.14376850022134e-01
2.69780138394252e-01
9.54743102017888e-01
3.72355844924318e-02
9.73720450346885e-01
7.63851140892482e-01
1.18633414936847e-01
8.79965272405919e-01
2.29766072326458e-01
2.14581348675946e-01
5.53175769274016e-01
5.69543699397536e-01
7.85056488576370e-01
7.03612440044151e-02
3.85235030812683e-01
2.18827523834420e-01
7.61881354955540e-01
6.01787684932948e-01
7.35624965880136e-01
5.33866395998362e-01
4.58426122244247e-01
3.93534775814035e-01
5.95614502823988e-01
5.64223854104049e-01
1.57174185198613e-01
2.25847379553148e-01
3.24505477597561e-02
1.31963622996591e-01
9.52792003130173e-02
9.07243681439340e-01
8.58898323570020e-01
9.26584489081992e-01
6.06767699687392e-01
4.44577848512411e-02
4.46744072889008e-01
7.04297008434785e-01
7.82323010316296e-01
5.93849066772942e-01
6.08421188620380e-01
6.23461384310610e-02
9.02450746122657e-02
2.33745903559143e-01
8.81242710715615e-01
9.45612039294623e-01
9.52424607650237e-01
9.05032217017240e-01
5.35304808690074e-01
1.16649372403246e-01
5.23185115070353e-01
2.40011898600339e-01
5.43467448786488e-01
4.77776493738326e-01
3.62554729492100e-01
1.02324258802902e-01
9.86166558009867e-02
7.68192472473808e-01
2.84958919171368e-01
7.62569765966554e-01
3.75366440486848e-01
2.48588170468441e-01
1.10837037179572e-01
9.68203543063485e-01
8.68934364585680e-01
4.90571818408173e-01
5.62911895941179e-01
2.13379089819724e-01
2.48964038689671e-02
4.21820343258170e-01
7.69927870620090e-01
3.94116271678519e-01
7.38753182894224e-01
8.95355354992932e-01
2.90201450278734e-02
1.06643170551399e-01
4.91630770645676e-01
6.14204741418697e-01
1.81756503718084e-01
7.62506850484838e-01
7.32218478371976e-01
7.02000071602897e-01
2.36207157385374e-01
7.16658532980869e-02
7.35682508496956e-01
9.81865764874579e-01
5.75193906825161e-01
8.49662993295578e-01
7.69870618540335e-01
7.66787475440199e-02
4.12321066343911e-01
6.08371948352434e-01
7.06646198878471e-01
6.04618204996117e-01
1.27465070809955e-02
1.31632270656907e-02
2.09258025642285e-01
5.14722282938234e-02
6.63426774309341e-01
7.06932874367742e-01
3.99591873486360e-01
1.73250234347943e-01
1.37603541615256e-01
9.05791490774164e-01
7.82445772175746e-01
1.56785007760784e-02
2.64935404635376e-01
6.64354494677822e-01
2.86524353089619e-01
6.21414727359452e-01
1.98811872083887e-01
8.70415130825657e-01
2.07277844491736e-01
8.39655849352749e-01
5.76723101411441e-01
9.20013471256987e-01
1.87943679855886e-01
7.21622826151696e-01
1.16905751544933e-01
9.07440233485359e-01
8.31579477577775e-01
3.14105081170389e-01
3.73789933030711e-01
6.71261955617678e-01
2.78700474583316e-01
8.21574905378944e-01
8.55361924915318e-02
8.97512562380150e-01
4.25375152093823e-01
7.83627412331702e-02
4.87735533905345e-01
6.82341188376251e-01
6.26698057582267e-01
6.73422432240033e-01
3.17049503475729e-01
7.16911005658186e-01
9.29557208534066e-01
3.21202482593993e-01
1.81209176156894e-01
1.60478092526144e-02
7.82578093680385e-01
8.26863722074764e-01
5.21478822729648e-01
6.23781181479336e-01
5.21652108564758e-01
8.38945811134047e-01
4.64486974742174e-01
4.45648148236311e-01
9.50286278746678e-01
4.72951021882189e-01
2.14913717648610e-01
2.12630229244645e-01
2.89910258310200e-01
3.79012550305339e-01
1.22173093618981e-01
7.73104884872673e-01
3.18500262141235e-01
5.07973204157290e-01
2.40022669356379e-01
4.26971776201268e-03
6.37747597945856e-01
2.35914253105985e-01
7.23597618217734e-02
4.27342463685530e-01
6.79053840254366e-01
3.83984981259508e-01
3.59765614672908e-01
4.61983254998287e-01
6.60896366529631e-01
5.51431937601422e-01
7.12264492146960e-01
9.27125150132940e-01
3.20683229342926e-01
6.21064867357579e-01
6.23821830492964e-01
9.15680768338819e-01
7.31370646512759e-01
6.01148557527150e-01
1.54630771964522e-01
6.48283167744497e-01
7.35893949790834e-01
8.59311077530834e-02
6.54523353455118e-01
6.24004617973589e-01
3.23793641022576e-02
8.00881490961752e-01
1.10854196889071e-01
7.72576337974489e-01
4.99992592442582e-01
1.38614669787423e-01
8.28979277240718e-01
3.95263555822008e-01
4.37134404384907e-01
7.76441870110641e-01
4.54373584809025e-01
6.79545544410048e-01
1.86959531467411e-01
4.34929491828401e-01
1.87188026694535e-01
4.92665960057852e-01
9.89535179518338e-01
1.61998938029977e-01
3.12593577131438e-01
8.01648979102618e-01
4.53314397138108e-01
6.58550457478035e-01
2.43983794323597e-01
3.63325506521687e-01
5.73104250573261e-01
8.67435590268016e-01
6.39952565926611e-01
6.08047563333874e-01
3.97744934410631e-01
1.40802902687207e-01
6.26859543975022e-01
1.35091823428799e-02
1.24784363376799e-01
5.16575635011781e-01
9.36937825213900e-01
9.02481351514290e-01
2.44226239017338e-01
4.60055813231366e-01
6.88801515782031e-01
1.12285833311643e-01
4.71750902831402e-01
5.86135889973969e-02
2.45515688222381e-02
8.42799160766348e-01
3.90026712598170e-01
9.50482092370017e-02
1.78754879533397e-01
5.66578145621006e-01
4.62217778261160e-02
2.13642700065819e-01
5.80734658784846e-01
1.60132861256523e-01
3.87141638256451e-02
2.15102023503567e-01
5.29741953642877e-01
3.15841397375373e-01
4.94453069559467e-01
9.44067442352388e-01
8.56324802153196e-01
4.30018550172186e-01
1.80262284181330e-01
4.43802479887734e-03
6.58201516348988e-02
3.99203092382667e-01
4.81053472844872e-03
7.61114698611395e-01
4.39699723835776e-01
9.37595427155960e-01
1.70775746006544e-01
1.69011131037225e-01
6.11191943192855e-01
7.90683837356638e-01
3.58236100770204e-01
4.40622423301123e-01
7.30074993410806e-01
6.97358692018038e-01
7.53825528449994e-01
9.17336863515895e-01
5.78050413876174e-01
9.68986845247299e-02
1.33324776180187e-01
3.24028527556385e-02
4.79590058558090e-01
2.56430064542274e-01
5.10460128220009e-01
9.87135400283342e-01
5.41312596734633e-01
7.64475719663708e-01
9.26061192586685e-01
5.89746885676770e-01
9.68475909760633e-01
6.81045566904151e-01
5.05098017712184e-02
7.90697903757958e-01
6.42817837010201e-01
2.16024621631018e-01
3.64025177903709e-01
2.24070292716305e-01
9.59924637778298e-01
6.85815703316223e-01
6.69775517723995e-01
7.87628213139142e-01
1.38929268491623e-01
7.23041027081785e-01
9.26851704300534e-01
2.88272939925357e-01
8.77549258819195e-01
3.04818229749810e-02
1.54700911429709e-01
5.08280781480016e-01
7.79730839037439e-01
8.69036136785036e-01
3.43045282779675e-01
9.81803484091595e-01
3.71032535256820e-01
7.98268201753068e-01
8.01372952357004e-01
6.02481766883051e-01
7.39153696461661e-01
9.16013795728349e-01
3.97151565285335e-01
9.11898990469114e-01
9.44274754279904e-01
9.23731543941325e-01
4.77781167999867e-01
8.59173211224852e-01
3.40260804397297e-03
7.17805163811699e-01
8.91107998205632e-01
3.85370911338678e-01
8.68347677493538e-02
6.18210228571784e-01
9.55176312270007e-01
1.18204667242635e-01
3.28065425860089e-01
7.16752564930473e-01
3.44858967167406e-01
5.90243770578387e-02
2.35700031851303e-02
2.78526765021874e-02
4.65083734103080e-02
2.36302735739973e-01
9.06312064828124e-01
9.04013182900823e-01
3.84135448950367e-01
1.47136385687499e-01
5.44075238227951e-02
9.03045161152787e-01
1.20474093060443e-01
3.41712442456521e-01
7.32065214318422e-01
2.82834940007095e-01
1.79582007438856e-01
7.41431038772860e-01
2.94982814787108e-01
4.62205269348825e-01
3.89880349419667e-01
6.72877978615760e-01
8.96536984019907e-01
6.78192969195639e-01
8.18127844115871e-01
8.78541008166347e-01
9.64152909886925e-01
1.32444180664445e-01
5.44057713667388e-01
9.26371053633577e-01
4.23107933925080e-01
6.71106836908485e-01
2.69744977786300e-01
1.22777240233004e-01
7.13654250102809e-01
4.83126562167608e-01
5.03699033828314e-01
8.63956473570044e-01
6.63883726554029e-01
7.90181967775950e-01
1.35322366551994e-01
9.52297833891296e-01
1.19865749682720e-01
8.08983765090879e-01
6.63492317266238e-01
7.81143930117172e-01
1.95815483628097e-01
2.29661940544297e-01
8.59627865004597e-01
4.95299272234942e-01
7.75472213657760e-01
1.35260926889203e-01
3.80608772070745e-01
2.26248345863630e-01
3.39602994693539e-02
3.50779656149372e-01
1.72071407404782e-01
8.52004938098302e-01
1.07946909961176e-01
8.80680450555256e-01
4.58341464531054e-01
7.66800342915083e-01
9.13635292382928e-01
6.95730838080948e-01
5.49117404311695e-01
4.14815603431112e-02
8.12325430814170e-01
6.63194898304553e-02
2.88304735274064e-01
6.49355341415502e-01
1.51009392333563e-01
2.33253475169961e-01
1.29185011985066e-01
4.46043898231927e-01
4.58713021478814e-01
9.39058394933272e-02
2.50585183992525e-01
9.21522266133741e-01
1.70630570018644e-01
1.61269833368147e-01
2.74978973714242e-01
8.90284849573095e-01
8.43291751764696e-01
1.16883981304831e-01
6.25098866818734e-01
3.81948218823465e-01
6.06531449073856e-02
8.99492423570706e-01
7.33116062053881e-01
3.26251841685376e-01
9.28869890542086e-01
5.74905670243309e-01
9.70014355838551e-01
2.21874848529642e-01
1.41280815319139e-02
7.26727566547509e-01
7.91473198753216e-01
7.12471118654875e-01
8.59279108314587e-02
1.13347907472555e-01
4.63434968552507e-01
7.33806377648726e-02
2.85580228749568e-01
8.74015644313996e-02
7.65613170016195e-01
6.75643249965756e-01
3.33409024925421e-01
1.29100391693760e-01
8.82867046743373e-01
5.81706327505302e-01
9.02189158573986e-01
7.94249158109169e-01
2.07991878312158e-01
6.16098374495400e-01
5.53660544218686e-01
7.67281339866426e-01
2.62792139137035e-01
3.20023693737319e-01
2.52427511689161e-01
1.29274175794963e-01
2.09133154593917e-01
4.02003680835864e-02
1.36756035660400e-01
1.51537444441356e-01
9.15641129947373e-01
6.94579003709298e-01
4.10554347790738e-01
8.33691882713376e-01
9.84809678361508e-01
2.27271322353223e-01
8.04110233628456e-01
4.22452371597287e-01
5.09509694194452e-01
8.11045207138427e-01
9.77687222004374e-01
8.74770416750884e-01
5.67777469769739e-01
4.27727187121127e-01
5.61364631684061e-01
8.70037109389812e-02
1.46698386497542e-02
9.61843042313619e-01
7.42264603347160e-01
2.90072938495055e-01
3.07012774760485e-01
4.93455557964439e-01
8.20778940736197e-02
6.42958403151875e-01
3.94485133829826e-01
3.80572344577572e-01
8.07877935577510e-01
9.85819892848129e-01
4.85837307105452e-01
7.62010808207715e-01
3.29350056534901e-01
9.06380483849463e-01
6.66340929959224e-01
3.98035600349856e-01
2.74797364906793e-01
2.75491252644641e-01
7.07535961841372e-01
5.53859818207703e-01
1.46425229701948e-01
5.94683656533989e-02
4.19325393591485e-02
6.88320394687487e-01
6.01442262433531e-01
7.43808883491211e-01
3.44122163515941e-01
1.90757092885503e-01
9.01751495462482e-02
9.14369202946872e-02
9.91831980400558e-01
5.22669719902230e-01
1.27766719889312e-01
8.01736558153753e-01
1.27967393518724e-02
2.87392502923594e-01
6.85755040772397e-02
9.25719412689377e-01
6.54138278812106e-01
9.09673941161143e-01
6.04144985775780e-01
2.59591698338325e-01
9.97792523738524e-01
9.54817229792667e-01
4.76467917933527e-01
3.11435192985087e-01
8.16395793175238e-01
6.33962934658650e-01
6.02623146649232e-01
8.32819256875233e-01
2.38551799725418e-01
4.19244370272211e-01
3.19703279516521e-01
4.77131563067030e-01
7.33979713092599e-01
1.68249314411938e-01
7.47477498576783e-01
9.34535378428085e-01
7.02110174409019e-01
8.33364297303034e-02
5.33018061003303e-01
1.72892231850449e-01
2.56423339427590e-01
6.63388286577092e-01
9.61987708393005e-01
4.73791409712878e-01
9.69014522695915e-01
2.36285257052855e-01
4.35980129193394e-01
5.16101438201626e-01
1.36865247587091e-01
9.09738545492891e-01
8.18311360140513e-02
3.61660025617937e-01
2.47132728642534e-01
1.63969764661156e-01
9.51508659162629e-01
4.18705614676351e-01
4.37605985978509e-01
1.18060828771463e-01
7.06070531540459e-01
9.37140777563219e-01
8.38894834532954e-01
3.80394261732259e-01
3.65703517999256e-01
1.29172078395924e-01
9.10928360288276e-01
1.45809457628727e-01
6.53216789533958e-01
1.95281146590206e-01
5.23694402982233e-01
5.45531890869390e-01
3.46842430432039e-01
3.16841582945659e-01
2.59008086754760e-01
5.00899071531458e-01
7.95473037799339e-01
2.89294398618171e-01
3.97444198435393e-01
3.57290831841647e-01
4.09636229069987e-01
7.64333021510572e-01
8.31923974691567e-02
8.77430036031274e-01
7.61215098379211e-01
9.08103057626699e-01
9.38024548554842e-01
2.45530185593001e-03
6.61676164690928e-01
8.44492055776478e-01
5.28469903176369e-01
7.39990542830584e-01
2.50267615353821e-01
5.52479452785853e-01
4.01285810902936e-01
5.58084211635485e-01
4.37075990192705e-01
3.38607731089772e-02
7.92305155977642e-01
4.41813144193510e-01
7.54794004785666e-01
4.22660030430411e-02
1.61011759609107e-01
8.82292802822463e-01
9.75598600335397e-01
7.87324917803815e-01
3.58890639834683e-01
1.11426106233275e-01
5.77021960368576e-01
2.73719593437511e-01
7.81590510368089e-02
9.63286875119754e-01
1.37987767609190e-01
5.12818161290749e-01
3.50486245236660e-02
1.60563119712895e-01
5.21652732905868e-02
4.96433010764568e-01
6.05079054869272e-01
7.80538944101329e-01
1.08524397487710e-01
2.47744723843189e-01
8.28521069566035e-01
2.22758642405071e-01
9.90385356596060e-01
7.64640535546368e-04
6.59632678840759e-01
4.99909703024075e-01
1.02029679165153e-01
1.84682489298177e-01
3.52478223881456e-01
6.63754118851547e-01
3.00101650130478e-01
1.96474174438189e-02
7.56716980469296e-01
3.58405103424499e-01
4.85544774797984e-01
3.32120082587095e-01
1.41782901386062e-01
2.73278069278848e-01
6.80507824407086e-01
6.42335365387193e-01
2.55882787515142e-01
2.81644317216900e-01
9.51156630061547e-01
2.81482936443607e-01
5.16128420976428e-01
4.60878771098810e-01
1.36596018345881e-02
9.99893692288690e-01
4.97075974625447e-01
2.11026913774629e-01
9.74143988967568e-01
1.41086548795747e-01
8.66018534191744e-01
5.17835840072087e-01
6.36876881661441e-01
8.58442324015188e-01
8.78089391905702e-01
6.81753845375757e-01
3.90438599018379e-01
1.14268125215283e-01
5.26448125296827e-01
6.78527515832242e-01
2.92905844160451e-01
5.80311160447438e-01
9.88579077771678e-01
1.42958548416110e-01
9.03962999512446e-01
3.52241198604173e-01
6.01260633451685e-01
2.40910065750663e-01
2.21860968052415e-01
3.89724849453944e-01
7.81976621935243e-01
2.03403427973359e-01
1.19585954965974e-01
2.65325209478938e-01
3.27072319893867e-01
5.37435897400301e-01
1.38770264640146e-02
6.79469412872453e-01
4.86129743259731e-02
3.16808043740007e-01
3.19430479428987e-01
5.59084321870708e-01
8.98507798282023e-01
8.49682232527982e-01
4.91815811285965e-01
1.34676769176716e-01
3.32101882781438e-01
1.53924928309291e-01
1.82764432419472e-01
2.03345821172657e-01
4.79000911414089e-01
5.05449657080409e-01
3.14323172035929e-01
6.42182970054842e-01
1.79745516084726e-01
5.13922807698836e-01
8.43427552615300e-01
7.85503397225145e-01
9.96627657318135e-01
6.85503569756570e-01
4.35641726345421e-01
5.04089526930670e-01
1.42225502256786e-01
9.24552396061051e-01
4.78819610476714e-01
9.63468816087701e-01
6.38121740579438e-01
6.36914430382884e-01
3.86816278137402e-01
9.54139002505876e-01
2.05068960983929e-01
8.73447252095904e-01
9.34060691253984e-02
6.41366942196764e-01
7.53719754095340e-01
7.78325189652743e-01
2.48038750010240e-02
1.89916299425412e-01
6.07953360950688e-01
7.47444062973399e-01
8.23814718917113e-01
9.31651001328005e-01
6.41294807819198e-01
7.68380849670914e-01
3.53483558661417e-01
1.88674930379881e-01
5.67760729214371e-01
2.33615324538458e-02
2.73425323621103e-01
8.15299596970734e-01
2.63930071062409e-01
2.70001644594731e-03
8.91197068599276e-01
5.54059521994006e-01
5.03046586713963e-01
4.15871678388044e-01
3.84189680506947e-01
5.62784343189822e-01
6.68463423653201e-01
5.14582787859529e-01
9.35688755909169e-01
8.77777801381821e-01
2.92616079077537e-01
8.79376746520221e-01
1.93566405360368e-01
2.50251990291300e-01
9.91191325751544e-01
8.85543057867335e-01
9.46428509627165e-02
3.68513165414578e-01
5.29014965383771e-01
7.60537482034078e-01
6.24415907863278e-01
9.45202074731782e-01
8.40197899485641e-01
7.55142336502618e-01
1.03863805384516e-01
4.44747051366556e-01
8.71827556569038e-01
5.89867545337642e-01
4.16784636388419e-02
8.93456326417826e-01
2.07789886884328e-01
9.80315773627584e-01
2.63739341993283e-01
8.76397529533970e-01
2.45514235007661e-01
9.52634439599944e-02
6.60560072380991e-01
4.57431155073872e-01
3.36771080675225e-01
9.97807924831525e-01
4.06643709118033e-01
4.68212454340650e-01
3.88966566111128e-01
4.68722043799070e-02
2.24101584704698e-01
2.52400475612232e-01
8.05484927667363e-01
1.86730617167585e-01
1.05874756922242e-01
2.27016511455502e-01
7.27524921067820e-01
3.64278034812583e-01
6.34514383797002e-01
7.42366715634587e-01
1.75308658713854e-01
2.32507109785789e-01
7.64747473821828e-01
3.10056431215047e-01
7.79392899811277e-01
1.18755057432530e-01
4.31658910867731e-01
2.51241799490918e-01
3.39681877699873e-01
1.78615378106471e-01
9.92721794065066e-01
3.72678185120926e-01
3.84371965322185e-01
8.43912027855531e-01
8.69480848087248e-01
5.73899880182630e-01
1.18774934309121e-01
4.45518547173046e-01
6.58934063218573e-01
5.14625717888871e-01
4.32334983686347e-01
4.05783497030144e-01
8.54635271471354e-01
4.26736732264155e-01
1.91599504586800e-01
9.13729410865255e-01
6.12406745442704e-01
3.24660594713277e-01
2.22641784366192e-01
6.91028616559154e-01
6.72327391411726e-01
3.66040502981762e-01
5.07998615976399e-01
1.14022898375664e-01
4.41751896946506e-01
5.94529596531124e-01
7.44299945565661e-01
6.34534057459582e-01
2.79519471874402e-02
2.79668934703134e-01
1.82080402405215e-01
5.58795493044684e-01
6.89149814886897e-01
3.79581994434339e-01
8.06291909574888e-01
5.99504344491766e-01
4.64588881391746e-01
2.14332728769260e-01
3.06045515100853e-01
6.42104275778224e-01
1.73383866790449e-01
2.37653160620417e-02
5.53381939570218e-01
6.22879598188870e-01
6.89552292711368e-01
9.56176701037736e-01
8.54814129776052e-01
7.32255897271516e-01
7.73405701207926e-01
7.74799659427890e-01
1.83147021164384e-01
7.86130194247439e-01
1.94683998507276e-01
7.35969855788013e-01
2.69950716323403e-01
6.58742908193444e-02
9.28877283648884e-01
9.58630701109040e-01
1.66648018018681e-01
1.64581134737481e-01
4.45768058767229e-01
2.84639829984827e-01
3.02050498307724e-01
3.63131806692603e-01
8.99547702118041e-01
2.33011435692234e-02
3.42098268143121e-01
8.20534228343076e-01
4.90438347084784e-01
1.05490866857721e-01
1.25530792285854e-01
9.40490443638117e-01
1.88470483411600e-01
3.85496098214978e-01
9.38642220299671e-01
8.43262751055920e-02
7.18187152691530e-01
3.89416148754292e-01
9.98712297552426e-01
2.22376257241419e-01
6.91351770651032e-01
4.21499167913387e-01
6.52495083393288e-01
2.47053735026530e-01
3.31682529646526e-01
2.13698024189675e-01
2.22831160849953e-01
1.23195560589299e-01
3.38968961207661e-01
4.58659831794846e-01
7.82076108127374e-01
9.32370219709591e-01
3.83772977309664e-01
7.47259577126912e-01
6.83590097588499e-01
4.43946391250410e-01
1.89887814228030e-01
5.84312375482293e-01
4.23911323497571e-02
8.67969918925201e-01
5.31237447419098e-01
6.86262437229319e-01
8.59351731595965e-01
1.25682299576808e-01
5.25393145069439e-01
4.33104044567174e-01
6.90071357754704e-01
5.42286885646712e-02
1.44138858312849e-01
6.12128463183517e-01
6.03849210531143e-01
3.21517080198275e-01
7.05064164022905e-01
6.14258820115848e-01
6.14851102387755e-01
8.98960250850758e-01
8.39973592702079e-01
1.15633971396728e-01
2.99199649293519e-01
3.11477717397676e-01
8.32515943236542e-01
3.70417791388150e-01
8.24178046657983e-01
9.06996882116800e-01
5.45084509879626e-01
4.30100261026056e-01
9.65166853902721e-01
6.88246341330280e-01
8.28423825634083e-02
4.91808840622197e-02
4.04679348457924e-02
4.27146021122739e-01
9.53791915245701e-01
8.05202881443032e-01
9.26342338232845e-01
3.03118738204049e-01
6.44672004050837e-01
2.11275754057944e-01
4.55901709825870e-01
1.82389137442637e-01
2.36221471560483e-01
5.37620564388704e-02
1.19614142430051e-01
8.69768068921074e-01
7.24474739118892e-01
4.55776217334937e-01
2.01972439145959e-01
5.75674649812785e-04
9.02891056830815e-01
9.45822242719354e-01
7.60469390487558e-01
1.48568306727013e-01
2.78347622060986e-01
4.40402603810043e-01
1.95888148375790e-02
3.20340670942318e-01
9.56206268264425e-01
4.72426153703462e-01
4.50476199957902e-01
4.43800506053165e-01
5.97967860637924e-01
4.68823502999327e-01
8.28858545217838e-01
2.40474829097775e-02
1.81979367490727e-01
5.91988140013908e-01
8.93908640536899e-01
9.19089536235138e-02
6.34284260966239e-01
2.07569040822630e-01
7.15832335429174e-01
6.12432488595271e-01
5.74774328972169e-01
5.89703442125189e-01
5.91759349855075e-01
3.32987205199844e-01
2.74691163446919e-01
7.62007315289857e-01
7.15068471531810e-01
7.23549347001754e-01
4.52627425238291e-01
4.90409844359329e-01
2.95288542163466e-01
3.12227037581153e-01
2.49388640438853e-01
6.17295359769936e-01
1.32342407172456e-01
4.12836885718835e-01
5.95065898082853e-01
8.69415701215841e-01
7.65601375996925e-01
3.05421298469853e-01
6.71748975574769e-01
6.79257809451320e-01
3.78652515241154e-02
4.69458372446877e-01
2.91792875520924e-01
4.40658813019960e-01
3.56668615496396e-01
5.41598321501162e-01
7.52286293479664e-01
7.09641175115621e-01
6.39594884215088e-01
8.13561709672682e-01
6.26824135603507e-01
6.20579694281622e-01
1.01033796394082e-01
2.68949236466037e-01
5.14196812575823e-01
4.93013149783027e-01
9.24225303373667e-01
4.03650601359534e-02
9.62729796099346e-01
3.85084068560971e-01
4.77899113783509e-01
3.22312508135002e-01
4.15250833051151e-03
3.20308430942374e-02
2.30136792896759e-01
9.43484451716073e-01
2.36520520483252e-01
5.19458847284705e-02
3.57425656638625e-01
5.20509510220919e-01
9.36786670585851e-01
5.34266497687464e-01
1.71368788330496e-01
1.94142495161880e-01
3.80303193573805e-01
6.06922767156892e-01
1.16000694897825e-01
6.42339831817782e-01
4.94834665966552e-01
2.61928759332055e-01
2.42396811484017e-01
9.71515388019703e-01
6.58334718478473e-01
3.44830268145268e-01
5.12587534029711e-01
8.07108767459772e-01
9.53117653919286e-01
8.01739896923621e-01
4.77445815543389e-01
8.80798711167869e-01
4.78541676021383e-01
1.09982604832054e-01
9.63178001727621e-01
3.77481711120430e-01
9.86846630476547e-01
4.73821361927924e-01
1.79481822190334e-01
7.96264598290349e-02
8.85285158965126e-01
2.31714853989904e-01
4.81765977957509e-01
4.16453344817774e-01
8.69460404650273e-01
4.78789663998457e-01
5.17818751792763e-01
6.85899193967455e-01
1.63507105226842e-01
1.14651446970048e-02
2.29418215457653e-01
1.17719990806877e-02
3.05503967107766e-02
7.09996751048568e-01
9.00750865934592e-01
9.67662986696555e-01
5.42777396848918e-01
2.89790803148403e-02
5.42914006446006e-01
6.40927109373323e-01
5.74314503952672e-01
4.87393702523645e-01
9.65339287208520e-01
9.74258598251902e-01
5.87821745406722e-01
7.44225977478324e-01
8.37524661102379e-01
3.57926232685539e-01
1.43119053395882e-01
1.51574754757155e-01
7.40424815218727e-01
5.61438885598066e-01
8.46905783374667e-01
1.07858709117653e-01
4.50874377063783e-01
6.34970490988824e-01
6.12230809406040e-01
3.01463879672535e-01
8.52154481986000e-01
3.07505436794375e-01
9.09765522057298e-02
5.76976180668105e-01
5.62370058288420e-01
7.91916598935021e-01
9.94775967283943e-01
6.94490284902186e-01
3.14936608408204e-01
3.08771393266840e-01
5.97043405680877e-01
4.21828393654974e-01
6.61594874196902e-01
6.33423170476596e-01
8.30915604926398e-01
7.48055754566240e-01
6.89945633104377e-01
8.41585378378630e-01
9.35836868853169e-01
9.81637195841333e-01
5.44537973483292e-01
9.65016404924761e-01
5.54518754981752e-01
7.41152175390387e-01
2.59235107414806e-01
5.32013953713847e-01
8.17660069962481e-01
7.45333957435944e-01
7.66138154334331e-01
3.21077985919951e-01
5.70614779000655e-01
4.16697012759456e-01
2.82003161109030e-01
1.62121637184278e-02
9.21035491946060e-01
6.35803901476029e-01
5.98196921770703e-01
5.49540413523511e-01
2.95715925137262e-01
1.95459228867213e-01
4.81634380872786e-01
3.16073436535597e-01
5.35465667338691e-01
2.61653928021894e-01
6.48837215805801e-01
4.02798496000901e-01
8.62645304334617e-01
6.95467363652915e-01
5.96998727866181e-01
1.45467871789959e-01
4.39042684142565e-01
7.41696540735088e-01
2.14189753973620e-02
7.44893176717549e-01
9.71033431085976e-01
6.82159080464777e-02
9.08413629209818e-01
8.32751704672971e-01
6.30398868039393e-01
8.32940030860634e-01
2.09374277584997e-01
4.40832475726564e-01
6.04208364694603e-02
9.54251082700783e-01
6.59981683522733e-01
6.57403003826252e-01
4.57405279570719e-01
4.35600285927681e-01
3.88956389794779e-01
7.16736871064684e-01
5.97557018334353e-01
4.92984189689255e-01
4.10027414826758e-01
8.25841321908144e-01
6.17828660979237e-02
5.29284211593761e-01
1.15428217516472e-02
8.88103628302610e-01
5.90442255157253e-01
3.51638946857500e-01
6.39359375325799e-01
6.30354766861228e-01
3.23842314509476e-01
1.61748449897343e-02
7.16604868282628e-01
6.66933151377060e-01
5.07381518670538e-02
3.00494774540011e-01
6.09383694999735e-01
1.27403476233514e-01
9.26739272428699e-01
8.26509387468202e-01
6.67945127451770e-01
3.20718333737944e-01
7.61601441294653e-02
5.41071440588047e-01
9.84836002863827e-01
5.49955398553654e-02
8.35162508115266e-01
1.04358983212178e-01
1.58889899597228e-01
9.48677844840673e-01
8.40265934555495e-01
9.57815151475213e-01
7.74033875012847e-01
7.40674972423019e-01
8.18534255051555e-01
4.38587051078265e-01
5.18946756832428e-02
7.90430261571815e-01
5.16067661600247e-01
6.60457156526674e-01
4.34776038151676e-01
7.73619490595167e-01
1.71456554902692e-01
4.01425472709286e-01
1.37977561256935e-01
3.57048624611086e-01
5.94620618032431e-01
5.51978377130035e-01
4.79575193159816e-01
8.18683183466516e-02
3.46680248776913e-01
4.05415355438579e-01
5.87509968590798e-01
8.84834579481302e-01
2.92738816242659e-01
6.74675328681200e-01
8.18550749420779e-01
8.31976425789215e-01
1.56141951687022e-01
7.91370525926921e-01
7.71654183104756e-01
3.65500075057825e-01
8.60202783841323e-02
9.01494096448514e-01
5.42401290077294e-01
2.82638641615582e-01
4.67025713062015e-01
1.16231867013076e-01
5.81089977192620e-01
3.19305733987606e-01
2.77053220228147e-01
7.79051737759321e-01
5.05886904005957e-01
4.83972361494466e-01
1.85460674486733e-01
1.43250088767909e-01
7.13688057696021e-01
1.03087938530572e-01
2.69585260319498e-01
5.88453526534937e-01
8.78450928203724e-01
2.61630616988893e-01
5.23305455286738e-03
1.05606679722300e-01
9.24530840786342e-01
4.75371463524920e-01
6.11080152013558e-01
3.46127590549629e-01
8.97702176983673e-02
3.07019482163569e-01
4.65496193563446e-01
3.47505446656768e-01
9.09573756540329e-01
7.58208333503096e-01
3.41802421652787e-01
4.77831086053135e-01
5.22363804989076e-01
1.83350796324547e-01
5.73269364833267e-01
2.54894671832248e-01
2.65311376345563e-01
7.54526502063748e-01
6.02870397580299e-01
6.41079880687172e-01
5.05773124725630e-02
8.41366735052847e-01
3.57227007500715e-01
6.05243122597772e-01
6.02856633306515e-01
2.36956188163397e-01
1.41736093882191e-01
5.79446256971439e-02
2.45247452891915e-01
1.04780976596600e-01
8.94088577242574e-01
7.82866217140576e-03
6.18903132667146e-01
9.45718124312134e-01
7.15490927648362e-01
5.60218140938369e-01
3.35303394375793e-01
4.75223271156727e-02
1.06442211857460e-01
4.86581981467813e-01
3.53029178275951e-01
3.11018614981407e-01
8.81444319412280e-01
3.05741303140370e-01
2.58599833603860e-01
8.08903129519890e-01
2.58857491750840e-01
2.55366639036921e-01
9.85325864189504e-01
4.01716302130633e-01
3.39351439327735e-01
6.19137471156234e-01
2.07171444244996e-01
8.16402529884860e-02
2.75665638756896e-01
1.68809796530158e-01
7.20290770707029e-02
7.18062063764422e-01
8.68090785231488e-01
6.27154255958745e-01
7.71016994561802e-03
6.75628731650900e-01
2.20601950349684e-01
7.75586608439445e-01
8.84504114138957e-01
6.24003311767691e-01
1.40910956275081e-01
4.68329427082551e-01
7.20237813694028e-02
3.49124862751409e-01
9.90643432588835e-01
1.95997108304751e-01
7.37302632547172e-01
4.44511304080686e-01
9.95611412243016e-02
6.35563712182719e-01
6.79474196871816e-01
9.93175653817837e-01
4.39469536316447e-01
3.21029929162688e-01
4.91671070690457e-01
6.19244000948961e-01
7.76055560229100e-01
5.58238505934928e-01
4.13173453407063e-01
6.45999937638992e-01
3.94750336661590e-01
6.65057586077594e-01
3.06575315356868e-01
4.83949879456071e-01
8.52402288511102e-01
3.48055044057259e-01
8.59349914228920e-01
4.60652463070259e-01
9.42826629842485e-01
6.77839735266325e-01
8.18101789187853e-01
5.83783108600799e-01
8.04553961851587e-01
1.10212760529635e-01
6.84411603720490e-01
9.63695178821350e-01
6.58179292967626e-01
9.75328232162467e-01
7.09275009793203e-02
5.58328456598638e-01
6.12438821169171e-01
5.98844248770994e-01
4.84824437613554e-02
5.49315056785140e-01
8.79148591243757e-01
9.62425338463779e-02
9.80860063047030e-01
1.49802230460280e-01
3.78904371482055e-01
8.53627660390335e-01
6.15182749465787e-01
3.43086051187789e-01
1.21413864847929e-01
6.82730529546207e-01
5.26694672127510e-01
7.63105981184197e-01
5.78487573066528e-01
3.02625898970870e-02
8.26586233351602e-01
3.53632446659655e-01
6.83050310294430e-02
7.32918403604473e-02
3.26109251609272e-01
4.26197271462919e-01
2.86637243600931e-01
2.95592641995042e-01
6.75967083477981e-01
4.13952623108542e-01
3.25566800149788e-01
3.78927795445350e-01
3.24584576341492e-01
9.06872474723532e-01
7.00273106165442e-01
3.52670859407912e-01
5.56811662464954e-01
5.41975388027545e-01
8.04255891479207e-01
8.92483563145138e-01
1.19656527604877e-01
2.05273898718679e-02
9.19409650858809e-02
8.56831345320235e-01
2.59665483988946e-01
6.92141187539473e-01
5.02531338228762e-01
3.38432987706104e-01
6.11242506286629e-01
4.59337708679278e-01
9.77105827116382e-01
8.33098934988076e-01
7.70562695616889e-01
8.16672146108357e-01
5.21794193541706e-01
8.84076876526492e-01
2.20480684114439e-01
4.67035138185040e-01
8.35970761997778e-01
7.74847490743261e-01
7.98045497400760e-01
4.71998193985645e-01
5.05570833099781e-01
4.42707198969740e-01
9.08213587779459e-01
1.62389312913604e-01
9.25088761531448e-01
1.01761244441150e-01
7.66577982041804e-01
3.65493439767026e-02
7.85301284779872e-01
8.17703365471961e-02
3.37663503073358e-01
1.83778605871129e-01
9.01038390917488e-01
8.69004338080032e-01
3.80155566590412e-02
2.69011878815209e-01
9.84678359520950e-01
5.65258487517086e-01
6.91215730625249e-01
8.08534032293698e-01
8.95511771665879e-01
1.91070842841428e-01
4.10092139457885e-01
2.13610679517032e-01
6.36241284320604e-02
1.51097759611441e-01
4.37496830099223e-01
6.01098142399498e-01
7.31366058111155e-01
2.11776527342114e-01
7.17069466200712e-02
7.53820476146878e-01
8.75175268355713e-01
9.43554350944830e-01
2.37834889157685e-02
7.69199325498193e-01
3.52450526961794e-01
4.35127641941761e-01
6.37217798475306e-02
1.37250318816695e-01
6.55022688777348e-01
3.28136339378593e-03
2.54010225982859e-01
9.75675446010125e-01
5.57445163661679e-01
7.96250980839610e-01
8.59069662086364e-01
1.24735794789306e-01
3.47380366939082e-01
9.51190775670098e-01
7.29435177388533e-01
2.24106245255621e-02
1.03953074374206e-02
9.36101220694149e-01
7.12220854425355e-01
5.01288274479609e-01
3.46861800121431e-01
5.62576235543576e-01
2.00454366186633e-02
7.63644240242879e-01
7.11741042170141e-01
7.78456441558300e-01
2.54288734668928e-02
2.08235413051473e-01
3.33831085208750e-01
8.73242583571592e-01
3.59311036634492e-01
1.14004963288381e-01
4.25414142462668e-01
5.29621875973556e-01
8.55278407354007e-01
1.17796966056806e-01
1.82002664381027e-01
4.68632216682262e-01
8.59239957128685e-01
6.66247247249653e-01
5.61324253606018e-01
8.57348364497907e-01
3.13124913248813e-01
4.95263160877499e-01
1.20296256810652e-01
2.26803467666420e-01
4.22391878528184e-01
5.01227136680335e-01
8.74558262081703e-01
9.32856795358429e-01
3.78810108635787e-01
2.61987472945366e-01
9.33215108906216e-01
7.56588428066957e-01
1.80385986590538e-01
4.15661807542981e-01
8.79301421298448e-01
2.99989961221523e-01
6.87498217157765e-01
1.21342912008117e-01
6.03780564624251e-01
8.36430349203520e-01
6.29306567202761e-01
8.19423712013375e-01
7.74710849777990e-01
4.11679856014748e-01
5.03774778975748e-01
6.35088268103535e-01
5.47163994739475e-03
5.72320295027124e-01
1.48921847475047e-01
1.89710880209670e-01
7.90055795962764e-01
8.86746435519694e-01
4.73369062751372e-01
8.53116261696731e-01
3.85087121801900e-01
2.98742730827205e-01
5.30187875153982e-01
3.18161931789156e-01
8.66822280822514e-01
8.95748068178808e-01
3.27999015023271e-01
3.17459817610196e-02
3.15063797677569e-01
2.50940798976410e-01
4.56561485710523e-02
3.41752202642144e-01
8.06476628403401e-01
9.33981173044852e-01
6.42455329308754e-01
8.49333645591295e-01
8.01265841143108e-01
7.17693662991081e-01
7.98347857566853e-01
4.23648980575210e-01
6.49494836197753e-01
3.16927970918198e-01
5.63322941966707e-01
1.04003343572771e-01
4.57632022844102e-02
1.33627112665851e-01
1.35312159477446e-01
9.30034429984677e-01
2.11015228524491e-01
5.47310242595334e-01
4.41630102968622e-01
3.43724603483252e-01
6.11562067112015e-01
3.51463346246462e-01
9.76375898974506e-01
5.34263375742798e-01
2.91477723668265e-01
9.39902553630766e-01
2.38218703008705e-01
6.35025918360247e-01
5.85091610278296e-01
6.76118084745220e-01
4.05811667433205e-01
8.80535795242180e-01
4.98908163230924e-01
9.64352770259081e-01
8.97826956757073e-01
2.74859021996614e-01
3.36356492226500e-01
1.99870389973203e-01
5.01954437013563e-01
2.25085933383673e-01
3.07996942600593e-01
7.93343141985994e-01
4.06736609518870e-02
4.23183555079468e-01
3.08355174113231e-01
3.72937358641583e-01
5.20803017543753e-01
2.40667181561982e-01
9.72912139799787e-01
9.16965353507514e-01
3.37834434945764e-01
4.60585824885922e-01
6.68236313785859e-02
4.39337358724831e-01
5.03342804385282e-01
1.61814492711853e-01
6.41215173334563e-01
5.36458541137774e-01
1.63632894365240e-01
4.25353030726243e-01
1.71454227263354e-01
9.15673251479155e-01
7.82439552216657e-01
7.32964481898049e-01
3.23901306354912e-01
9.24657998139508e-01
3.41750325232461e-01
8.48585228710453e-01
9.50199912443866e-01
2.78127586686401e-01
9.81215115097295e-01
6.19980455209168e-01
2.36114220605644e-02
9.45836878534115e-01
4.39462056630521e-01
1.89974328924623e-01
2.16582624027618e-01
8.13142596279638e-02
1.56711582589783e-01
1.55395322646315e-01
9.94025207660626e-01
4.88826508101993e-01
4.63864496158417e-01
6.91618791946835e-01
2.68840440916359e-01
3.82724315012062e-03
3.07179125605524e-01
6.80016947381250e-01
3.05856595790824e-01
4.10714910087729e-01
7.10796343485007e-01
8.16808822097091e-02
4.49777368630529e-01
1.43229752259646e-01
2.09776507127371e-01
2.92142938608538e-01
3.48094835007639e-01
2.59077783884332e-01
1.32867682062492e-01
5.20346274031053e-01
8.50430715263819e-01
1.95877005108766e-01
5.95133188322651e-01
8.55732520258203e-01
9.32642018189283e-01
8.52000642289881e-01
7.49201963645750e-01
9.53444500846754e-01
2.89063457189169e-01
2.54856587790236e-01
8.02476892941818e-02
4.60612458580177e-01
2.71999373371869e-01
2.04748513853248e-01
4.03928128779417e-01
2.85182858194537e-01
6.27557294623059e-01
7.42539266259036e-01
4.27665448114380e-01
9.35709263386822e-01
9.25490228790066e-01
4.37649476031010e-01
3.80843295801689e-01
5.93192253344774e-01
8.66058786000246e-01
8.06148091738813e-02
8.77119836855864e-01
6.10853800149699e-01
7.78477636778676e-01
1.96731156478430e-01
2.89869857324747e-01
7.59108406521941e-01
5.54233502932933e-01
2.54574599626928e-01
8.44128189707784e-01
6.29208182501064e-01
4.66227483989822e-01
7.37551631701316e-01
7.57861205963902e-01
1.08035338892499e-01
7.04643132917631e-02
9.35533766882859e-01
5.47587251427557e-02
2.26940562562409e-01
9.18196200031041e-02
1.22557202062766e-01
1.91554736184285e-01
1.87022657261177e-01
7.03613964901048e-01
7.61351717676439e-01
7.59202750632566e-01
6.58905613165227e-01
1.07967480368034e-01
8.97867448240987e-01
3.11372609042892e-01
3.16105465065138e-01
6.25752960520916e-01
6.42391315925923e-01
2.39665030445604e-01
1.80334564445194e-01
9.68750107849300e-01
9.89269692446372e-01
9.55783345626025e-02
6.24175584587289e-01
9.50191880572349e-01
6.50573672196339e-01
7.61338445743655e-01
7.12129578086039e-01
9.61653478973596e-02
6.27210917752963e-01
2.65971134418072e-01
5.11149126189615e-01
7.37451868951788e-01
5.23294511809748e-01
6.23853437329190e-01
1.23893983904508e-02
1.99194953684348e-01
2.99604783948708e-01
6.77945081270648e-01
9.17404035850939e-01
9.30660838973771e-01
4.50399760933830e-01
1.69999180965000e-01
2.15432918428345e-01
7.34337324062172e-02
7.61205411522180e-01
8.55668179743541e-01
8.04365171240343e-01
9.51245574668830e-01
8.71384312958280e-01
4.61633280288107e-01
3.80361647553151e-01
7.31177639453532e-01
1.02910107953798e-01
8.16317017744952e-01
4.99272978095697e-01
2.16504322224881e-01
4.82858159929238e-02
8.03424145933854e-01
3.35641286778514e-01
1.22657570757041e-01
3.89007948173155e-01
2.55972956034933e-01
3.68196430126806e-01
8.15000841064283e-01
9.99749427831169e-01
7.94441180840083e-01
5.94510207016224e-02
6.48794363139585e-01
2.09921245630580e-01
7.98025095452204e-01
7.54401255461422e-01
6.85075002225435e-01
9.62766477588686e-01
2.86373956177210e-01
8.72083936574309e-02
8.97261343903403e-01
2.62825409885414e-01
6.12372766169697e-01
5.88860793365033e-01
4.23316953833137e-01
7.66266140386522e-01
4.36980114828808e-01
3.75615307605927e-01
5.00512383161045e-01
8.16983624174757e-01
3.29308059611313e-01
3.61471761989723e-01
4.42309671268827e-01
7.79584766069189e-01
3.71883838982924e-01
2.85333408932941e-01
5.11598593457979e-01
1.81118171299020e-01
7.59780764892466e-01
4.16454435890614e-02
3.19439969403023e-01
4.79872630942004e-01
3.58439374387171e-01
6.47563009986051e-01
4.95087308892001e-01
7.15263819965053e-01
3.83292946965950e-01
1.10060624942250e-01
6.68036570749903e-01
9.22716555999918e-02
6.16545840258114e-01
6.67340190708905e-02
6.11082239019006e-01
7.43400519268434e-01
6.50377424985217e-01
9.19345494783746e-01
2.47787788566791e-01
6.71186351916516e-01
8.42519982362008e-01
3.83924902915958e-01
8.73921073597989e-01
5.50979332184002e-01
4.51546129757872e-01
7.54571542973979e-01
9.56533420235416e-01
4.08483217692767e-01
1.89071344442590e-01
4.51479909427036e-01
8.06073007169467e-01
8.71542780712687e-01
6.88246519092140e-01
7.69346901275812e-01
6.63060861890273e-01
4.18733346086533e-01
9.40617660793183e-01
6.00420258397696e-01
2.09677370400150e-01
9.25176173051410e-01
4.79801943928365e-01
5.27489478866012e-01
4.70052592541765e-01
4.66473429087190e-01
1.45419106670419e-03
1.73634153806375e-02
3.60689881358243e-01
2.95984607631923e-01
1.99784858215202e-01
7.46931877870802e-01
6.03193042138061e-01
6.34721552212419e-01
1.39954959896093e-01
4.45303968335033e-01
8.26854691123509e-01
1.86587461666026e-02
7.84880161933976e-01
9.83046139194061e-01
2.24796141551532e-01
9.51173039071658e-01
7.34830003011114e-01
6.20365538936365e-01
4.06216488784105e-01
1.49216800620181e-01
8.32539902659286e-01
9.88618791062671e-01
9.63514943464324e-02
7.20587728909848e-01
4.47597665534788e-01
9.85552785798267e-01
7.89795902024143e-01
1.86450543648173e-01
9.85700385532291e-01
6.69114540037227e-01
6.88767343280571e-01
1.93241833092498e-01
3.67028449850903e-01
9.19950414372260e-01
5.54576156999787e-01
8.00369507307063e-01
2.95817404886879e-01
7.51656676314025e-01
2.11231517292312e-01
7.78257925235134e-01
3.66005512901981e-01
5.65140746465331e-01
4.93142770695328e-01
7.03037186140282e-01
2.59285817673625e-01
4.84579252128617e-01
8.89074874784258e-02
9.25887403318080e-01
4.99674868903389e-01
6.77729313165260e-01
3.26257182306061e-01
5.57189154183812e-01
7.84951937150738e-01
6.71064058783640e-01
9.18437429375180e-01
1.54793679637570e-01
7.03266287341934e-01
9.02596519222808e-01
8.82199344739443e-01
5.32504958268778e-01
7.80294505941280e-01
3.32830919988461e-01
4.78900670665845e-01
9.88321183128205e-01
1.82309482786287e-01
9.12059895519898e-01
5.71743543466463e-01
7.33371028453399e-01
2.72100428122517e-01
9.30755698706942e-01
4.53147857152439e-01
4.94849872921357e-01
8.61847638177403e-02
3.92301014767196e-01
5.08074950283656e-01
8.60135166686311e-01
3.89091433001154e-01
4.80402535615715e-01
5.67228048203016e-01
4.71070024238241e-01
7.23117523804972e-01
7.63226379989307e-01
4.90608470166290e-01
7.18726315207520e-01
5.43692902535119e-01
1.40285979941562e-01
7.29314916978893e-01
9.38708841763697e-01
6.75089869727265e-01
2.68060799305190e-01
4.21188747601210e-01
5.23266805675748e-01
4.49238001418647e-01
5.85993562916853e-01
6.53758186777950e-01
1.71755213497150e-01
2.78302300372301e-01
4.93330896588561e-01
9.64370636979472e-02
9.01191372035740e-01
4.26479111603557e-01
2.09839128052233e-01
5.07194532981115e-01
8.30428418553368e-01
8.13390259663394e-01
7.35934932748582e-01
6.68620440323093e-01
7.27689089521134e-01
3.64947681817882e-01
7.69384248129717e-01
6.49423248094378e-01
5.40953686302647e-01
1.04315081849150e-01
4.26394939397537e-01
3.55526144518401e-01
2.02151018285838e-01
2.40801029223562e-01
2.09779241498727e-01
7.01028229375831e-01
2.44615372639726e-01
4.79151603413251e-01
6.85898576673455e-01
6.19479070013795e-01
3.18933600989566e-01
8.02682137250995e-01
5.86971248942471e-01
8.72251562382325e-01
9.27508913484330e-01
4.21198053849593e-02
3.80585215379979e-01
2.34923741701944e-01
4.95098958697027e-01
4.62290215284780e-01
4.43332777799825e-01
2.69510943812249e-01
3.20052746020431e-02
3.21067782331908e-01
4.70192572518682e-01
3.15545431473373e-01
7.45748019699794e-01
4.19745386173058e-01
1.82411305371848e-01
5.15010829362928e-01
2.48203007305055e-01
8.72551177169973e-02
1.07819488260577e-01
7.03339968609236e-01
8.44385645668382e-01
8.99713824571315e-01
5.77259086981984e-01
2.45860485997475e-01
9.90593781163635e-01
6.02288903490948e-01
5.56581906149062e-01
8.14768450392151e-01
3.73919317118644e-01
7.12252471024065e-01
1.11611262741973e-01
3.69395227071383e-01
8.56595952663161e-01
8.45112582662663e-01
5.62969094169793e-01
5.30745541316635e-01
1.99554919268320e-01
4.11707574965805e-01
3.19003109573438e-01
8.42933235340440e-01
3.16079817673803e-02
2.99127976853333e-01
7.51905888020561e-01
3.23846854906997e-01
6.28973463206780e-01
1.22914775599594e-01
6.47174571774687e-01
1.00753471020134e-01
9.62642074719833e-01
7.62527130598984e-01
3.53654804048203e-01
9.10709695859131e-01
3.54666237826982e-02
4.16728647453026e-01
5.71272631182480e-01
6.85873537207704e-01
6.19071960433117e-02
1.04863566319300e-01
3.49931348900478e-01
7.38058541550007e-01
7.37267452593211e-01
2.40858301614202e-01
7.43646861802951e-01
7.42509573898093e-01
5.45458918220829e-01
3.89725582624815e-01
3.89953605532968e-02
6.17763768465647e-01
5.66461702976599e-01
9.88879207991520e-01
2.19450554718162e-02
6.86280436558731e-01
7.81277774989526e-01
7.82103473537495e-01
5.11531302224574e-01
1.62967034448034e-01
2.23951220546317e-01
7.70142308788433e-02
4.11941736654027e-01
9.33598708595791e-01
6.73064556239993e-01
4.69840326254771e-01
9.58678810823566e-01
7.79015488047545e-01
7.50148258222933e-01
2.02998967382120e-01
4.66606602585035e-02
4.02335502940063e-01
9.53624544098696e-01
5.56905224217404e-01
9.97879476590518e-01
4.18893406432351e-01
7.88389803190659e-01
4.32806395274163e-01
3.02695772214487e-01
4.81100624445917e-01
2.37494950897682e-01
1.79296942104972e-01
2.48262953575124e-01
2.59308733544957e-01
2.38769950557645e-01
7.54498105416651e-02
6.95060086448897e-01
7.66539703588377e-01
9.51795820470996e-01
2.39270369647913e-01
3.40957345980404e-01
7.11819343665642e-01
9.53840900016116e-02
4.97788448022379e-01
1.99538427728826e-01
2.43631765004565e-01
1.75116453691497e-01
4.12066321281667e-02
9.04865411165481e-01
3.96488305547203e-02
7.81398362447064e-01
1.77256667224361e-01
7.79202415855946e-01
1.16127786185660e-03
1.71612833743531e-01
5.95626594860447e-01
3.84423300016631e-02
7.98378001724818e-01
8.66858705911821e-01
2.19122869634641e-02
5.07248211251589e-01
2.62970211356014e-01
6.46109828895380e-01
1.51275086991109e-01
2.33485451620556e-01
2.06092447496995e-01
4.86157581769356e-02
1.04420656681441e-01
6.96262739750653e-01
2.17096453010492e-01
4.19780152724829e-02
4.37855885012743e-01
6.73851690063958e-01
4.17033528404184e-02
1.41833513671703e-01
9.49737275477391e-01
8.05607082216286e-01
9.95193579321078e-02
3.28550118475956e-01
4.46568853921902e-01
2.94263867858604e-01
5.18743585465310e-01
6.59316934042602e-02
2.57054700313710e-01
1.52914111972126e-01
6.93746425585636e-01
2.31435380073653e-01
8.63487673481764e-01
1.16808908311537e-01
6.64447953588652e-01
7.93867641626829e-01
1.92982368890036e-01
8.51709807325137e-01
5.70409533278463e-01
3.72355538697814e-01
8.74745068964969e-01
1.93741452914402e-01
2.67862646146166e-01
4.66631761426828e-01
4.26033619167360e-01
9.87074457040296e-01
4.03306610392563e-01
4.79871443404228e-01
5.21541689598692e-01
5.51253582293427e-01
5.93983699101883e-01
4.24820394036359e-01
3.67785978245664e-01
6.87015703637333e-01
3.87475337201046e-01
9.83337303537203e-01
1.99310239592448e-01
5.67646200903264e-01
4.22052174782510e-02
6.41536782904940e-01
9.45441598145277e-01
1.97671158127604e-01
4.67273680017385e-01
2.70144862982200e-01
9.18180179611469e-01
3.62301273367408e-02
9.31036983279353e-01
6.83655719299170e-01
5.12478859159420e-01
9.81754070234140e-01
3.91562459178493e-01
2.79542896165527e-01
6.34996271205221e-01
4.59870597760244e-01
4.59842749560084e-01
7.64998243340452e-01
3.62685983033948e-01
1.61535883205384e-01
1.25746379917182e-01
5.63593042627371e-01
2.44556342537073e-01
8.93033824992956e-01
3.08927996596932e-01
6.64805719174047e-01
9.02783287288838e-01
6.83482708481981e-01
2.73734404346095e-01
9.94709948690078e-01
3.16752469445868e-01
4.43479955978476e-01
5.37217935481584e-01
1.62048387301644e-01
4.59434766654331e-01
9.20992587567199e-01
5.48220303978359e-01
4.36742575069426e-02
2.48116376791266e-01
6.18360128184654e-01
8.86095465703635e-01
6.04918791255445e-01
1.76055182937878e-02
9.33060434470233e-01
3.69218412249421e-01
8.41972071236250e-01
2.01999739722972e-01
1.62361762470441e-01
4.52366045510020e-01
1.86689939868753e-01
7.65663613314744e-01
4.31295753953634e-01
6.95121618466814e-01
8.47976086769176e-01
2.84659293564916e-01
8.32112528725281e-01
1.76575105949863e-01
2.59308788516248e-01
8.03214700468395e-01
1.31051587276959e-01
1.20548975941236e-02
6.94674621033215e-01
8.15165150790275e-01
9.71353582668005e-01
5.56595547074674e-01
4.19761473278075e-01
3.75245792184676e-01
1.75279546578925e-01
8.02354558688980e-02
7.38051119882748e-01
1.11839834727793e-01
1.90809253437661e-01
4.96208993039172e-01
5.42741826919524e-01
3.84861334672446e-01
2.62682931344543e-02
9.89940641356774e-01
1.36033887825047e-01
8.04916094012972e-01
4.44081138919804e-01
4.84944292851772e-01
3.63529600805314e-01
6.11149407735366e-01
7.19295062588703e-01
6.68083808079693e-01
1.44041735649742e-01
5.73722843335273e-01
8.32314148376710e-01
4.30326530063130e-01
4.99773234492127e-01
4.69111494793885e-01
9.59028050899983e-01
8.09087830314389e-01
5.53695599495268e-01
2.56319447103996e-01
6.05456766062073e-01
3.04577403244712e-01
9.80275628486778e-01
8.56690825167836e-01
3.75155086730895e-01
9.95797901346584e-01
4.32796953714992e-01
5.18285303302567e-01
8.18495453161109e-01
7.72446454079348e-01
3.89772658795906e-01
8.91740420179929e-01
4.44245483288245e-01
5.23178558169920e-01
2.28395013805729e-01
6.56507756367077e-01
4.95043795145323e-01
7.23417961713019e-01
4.86017541404853e-01
7.91228658336755e-01
6.18491016684455e-01
2.00333651075580e-01
2.96662942334353e-01
5.44707802583411e-01
3.67740349260995e-01
8.32179196247683e-01
2.78242475941107e-01
3.86957516330791e-01
8.85332896353765e-01
8.64584088008241e-02
5.16949172837585e-01
2.81157040672815e-01
3.84141900437876e-01
8.35168708920068e-01
9.10085884384203e-01
7.57350221348139e-01
4.71379678036391e-01
3.84593916779189e-01
2.92355970164239e-01
8.38572907936022e-01
7.79680973446436e-01
8.35046531802295e-01
1.13517811532323e-01
8.32748704799653e-01
7.41948685878753e-01
6.88386156156344e-01
1.77423014671091e-01
3.56890601330727e-01
8.89173892629489e-01
6.15736639917435e-01
2.76097974254898e-01
2.56967426818335e-01
4.04388951162334e-01
9.53432851758749e-01
1.69851720033606e-02
9.86943107315732e-01
1.84047568458422e-02
9.74779732362918e-01
5.93754346395022e-02
6.84470795461979e-01
7.03759563771333e-04
5.61011211693781e-01
1.38298316554760e-01
2.03739985348537e-01
2.16690368434336e-01
1.11468160816049e-02
5.89509282427421e-01
4.28599346726740e-01
4.07330534501377e-02
5.34593517841018e-02
3.84282603133578e-01
5.35651455331587e-01
6.88551641290054e-01
3.94113892145586e-01
8.80520251823003e-01
8.24762029034245e-01
9.46579614492161e-01
5.22871947525346e-02
9.08707857943182e-01
2.62303643017161e-01
1.98890288488689e-01
5.59161249483187e-01
8.47500007665312e-02
4.77624936764665e-01
7.64704635566961e-01
1.32183102634340e-01
3.63203928240858e-01
7.93307351932320e-01
3.65900526469064e-01
2.38726233672000e-01
5.08046614084475e-01
1.83900681933499e-01
1.37176601264486e-02
3.28180243527680e-01
8.40537426593713e-01
3.28024218303183e-02
5.67886741797293e-01
5.73849706601135e-01
2.01072984722716e-01
4.95544033866190e-01
8.60870262200042e-01
4.39396557576193e-01
7.40789103382544e-01
9.24316934874097e-01
4.52802828995134e-01
6.15837927142886e-01
1.19248179737474e-01
9.04773354693065e-01
4.62659729803285e-01
6.91201677818362e-01
7.63263078904013e-02
6.23853887811880e-01
3.16939249973038e-01
4.82952572018291e-01
1.33549659389525e-01
6.35671075202335e-01
7.76510563430972e-01
9.02629831576608e-01
1.59499979752449e-01
5.98545967982984e-01
7.90290419976214e-01
8.68431910011114e-01
8.35725967370570e-01
2.02621370316413e-01
8.13159783556704e-01
7.90880497192809e-01
2.48495671528924e-01
3.48984564408233e-01
6.27766701553674e-01
7.71647677375980e-01
7.05292986513158e-01
4.78177370169676e-01
6.28988820497256e-01
4.82165144129235e-01
9.61186360824274e-01
5.14387976155703e-01
3.52930868001161e-01
5.82112688204795e-01
8.40322316822451e-01
8.82928750952851e-01
7.29596147638171e-01
2.92002347550875e-01
9.16588291222090e-01
5.31670834969001e-01
1.21195729199064e-01
3.77682861521730e-01
7.53582538778413e-01
1.15398571964389e-01
1.93176067257168e-01
3.84701664341975e-02
2.70160579125204e-01
1.54994304719019e-01
1.33329557471552e-01
3.78216413866033e-01
3.95068316665833e-01
6.01250287790968e-01
2.57700449721794e-01
2.53318169953529e-01
6.65682144673571e-01
3.99556603699957e-01
2.74926662280764e-01
3.37209343022449e-01
2.29200768546329e-01
1.14166627171004e-01
9.37409545748856e-01
2.65307085341160e-03
9.97052481992186e-01
6.55813836379282e-01
7.80815288538470e-01
4.00318409595221e-01
7.65446519809864e-01
2.06920067423894e-01
8.35523780367576e-01
5.82650479564188e-01
5.37015732362166e-01
3.60005613925510e-02
5.24263299401972e-02
6.96156122092304e-01
6.87954208953886e-01
2.69685040346261e-01
8.71522521619089e-01
6.25194146145402e-01
1.17952245294502e-01
6.25730845154747e-01
7.83052839630195e-01
6.12320167997756e-01
5.92221885483514e-01
6.19106000677531e-01
7.12725420078365e-01
4.72545927775391e-01
4.91071817378684e-01
9.23269453663262e-01
9.99607520139674e-01
1.07797048872157e-01
9.55377513177347e-03
5.25027401525272e-01
2.45169836832596e-01
1.26687947837559e-02
2.68970794189845e-01
4.58747232572420e-01
8.78089378841007e-01
1.92930884485263e-01
5.25528439552681e-01
1.72402710592672e-01
8.16152989031593e-01
5.73504408574816e-01
2.30193602389984e-01
2.39633395455527e-01
5.18915075666540e-01
9.76736470056994e-01
7.74971290518562e-01
6.95254937126905e-02
1.64857068806813e-01
1.71551649282147e-01
8.67864012958913e-01
5.52470653759636e-01
4.16431141632393e-01
1.91099966143472e-01
3.21882522669767e-01
3.30983691862134e-01
1.52845474098004e-01
8.27033975271834e-01
6.36292327977998e-01
8.99938710055730e-01
6.52159522760972e-01
9.03347605617689e-01
2.80959065459134e-01
9.32731726444847e-01
3.46481107723531e-01
9.70823011065211e-01
7.01101291120692e-01
9.57367061064970e-01
1.21316743829239e-01
9.37925038226243e-01
2.67323229542066e-01
6.57292782914369e-01
8.33096112968472e-01
7.42691237857431e-01
8.12087638178458e-01
7.78723252155640e-01
3.61346148893945e-02
5.53370677071867e-01
6.75170389109236e-02
2.28076162665360e-01
3.20138658745915e-02
7.72094817767200e-01
8.04948139933756e-01
9.83049716850261e-01
3.32219400049871e-01
8.73770761770097e-01
3.74205990017105e-01
7.68246811841296e-01
4.47037774332567e-01
9.84836639595537e-02
5.47831697907484e-01
6.15730815053457e-01
9.46292656570746e-01
5.16044949127827e-01
1.32275353233709e-01
8.16868636188245e-01
7.06470650765739e-01
7.81002417937258e-01
6.50020990255313e-01
1.98627748796707e-01
3.55744429990794e-01
2.47429168819400e-02
5.90871508511720e-01
7.45414343427684e-01
7.50662377095902e-01
2.96732278304310e-01
7.95573420042041e-01
4.24980945989846e-01
8.48635355414916e-01
6.44485684682859e-01
2.78869762251401e-01
8.96251812355739e-01
5.50164145926089e-01
6.30689092543068e-01
5.96392303091663e-01
3.86672417676261e-01
3.98664901975898e-02
3.76289244875349e-01
6.09567309915182e-01
7.39769997298076e-01
7.34167491816562e-01
7.84853104253040e-01
2.46765050179954e-01
1.38969318036910e-01
8.15017794191961e-01
6.63295084051759e-01
2.84694802757133e-02
4.64043998353480e-01
1.09262131027813e-01
6.82809160778773e-01
2.14556546686043e-01
8.20888335800756e-01
6.78290995141253e-01
7.20996873053718e-01
7.71700534599858e-01
2.63961137222762e-01
2.85506384450936e-02
8.35427687552823e-01
1.63623115093046e-01
5.79454481275307e-01
8.96647903531562e-01
1.67758005950314e-01
8.33166737781998e-03
8.71737483412381e-01
8.64237024580350e-01
7.48997398502139e-02
6.33394935781923e-01
3.83329757233801e-01
8.97196694134153e-01
4.73603164855312e-01
7.83801185031323e-01
5.12984419303449e-01
1.97537744790607e-01
8.54706956626093e-01
5.21911912890903e-02
7.26421480221811e-02
5.55639398483766e-01
6.02079579238387e-01
4.27104968761770e-01
5.15877496368665e-01
4.75045760395922e-01
6.39614568941413e-01
4.65964752169781e-01
7.45935490017963e-01
8.56294455982849e-01
1.74752658190552e-01
4.01752109195186e-01
5.82111561663362e-01
3.34210396885648e-01
1.34542976293165e-02
6.78912907935532e-01
2.19846340563519e-02
5.72177154144800e-01
5.05721938634592e-01
7.76229133748688e-01
5.98759451905396e-01
8.93174041491578e-01
2.91981355835486e-01
8.21433207911767e-01
8.15246491023954e-01
4.41880169570716e-01
7.26871071365591e-01
3.63583328095725e-01
7.28424109498789e-01
4.79391035060935e-01
7.57366029980327e-01
9.30805716746463e-01
1.29707761607192e-01
1.31742560175988e-01
1.05992265418243e-01
5.81856042979584e-01
5.56092051875672e-01
8.55770125641303e-01
6.47606725600367e-01
6.14497004121795e-01
7.73217055881385e-01
8.57936636652310e-01
6.04423856463042e-01
3.19611703087072e-01
6.96067262187885e-01
2.04754741696240e-01
1.19891537692000e-01
9.13991117336315e-01
7.89727103207638e-01
9.96476246579729e-01
7.14151583346988e-01
4.00708384490653e-01
1.87784872770682e-01
8.62476909102867e-01
6.67113337731436e-01
6.57753900800815e-01
7.16419447621242e-02
6.24469139729761e-01
8.26721380901225e-01
8.92846873496537e-01
8.04591066649062e-01
6.68667014299966e-01
8.43267711664534e-01
4.93822100200255e-01
2.85882581928869e-01
2.44157633786138e-01
9.20301550295208e-01
3.42059212437974e-02
4.88602065346452e-01
8.29916276958031e-01
6.39999782312344e-01
6.83030294734155e-01
1.69782295364424e-01
9.84643940916597e-02
5.40630437535427e-01
5.79290801814368e-01
6.76785615687815e-01
7.33146819023003e-01
1.07240405895966e-01
4.97074915595230e-01
4.21212081238030e-01
7.46246428497327e-01
6.35273804137790e-01
9.28772946212998e-01
6.75824729023993e-01
6.78467930079454e-01
4.30216665197557e-01
6.34325892594940e-01
1.12726451935416e-01
1.54504343032320e-02
5.34334032620035e-01
3.86996173698248e-01
8.55515249241042e-01
3.17598582129790e-01
2.98830729309400e-01
7.97972123580284e-01
6.36594264780174e-01
4.24666376932111e-01
3.27820204736155e-01
3.89501319124414e-01
5.57155791963189e-01
7.94188949420132e-01
4.75759585647596e-01
1.68440605671569e-01
1.62701630320003e-01
5.64489756618652e-01
5.59475741255809e-01
6.92270109617139e-01
7.09218756361418e-03
8.99678953042609e-01
4.60933887587111e-01
4.45991597269194e-01
8.09278287970071e-01
4.93917512242582e-02
7.85609016333350e-02
8.07664298671329e-01
6.38983100123945e-01
7.74062885100747e-01
1.74976887640788e-01
3.01647052171901e-01
7.48149500868667e-01
4.98515832746553e-01
7.20454087155122e-01
7.87882761123820e-01
9.05349891815931e-01
5.53811157432076e-01
7.94666969326498e-01
9.17838554585957e-01
6.02176551515544e-02
8.33792552757673e-01
6.72032743892076e-01
3.01031214293310e-01
1.16634607272370e-01
3.10380734579762e-01
9.27333827939786e-01
9.81405660753194e-01
5.26370940394864e-01
6.74287842075282e-01
1.96066720442887e-01
5.04410844769279e-01
4.86791724817409e-01
4.03862435877574e-02
6.60837747496803e-01
1.71433778422311e-01
3.34901610009875e-03
8.51223177289637e-01
2.22379960118608e-01
5.56957338232910e-01
9.58287251340014e-01
7.07956508416029e-01
1.45054019019765e-02
7.79687890495200e-01
9.80929574967295e-01
2.34230591916825e-01
1.99328851474195e-01
2.99435844548479e-01
5.13880321348969e-01
6.63637723773824e-01
8.13973339582070e-01
7.46230346904880e-01
1.17964361276795e-01
5.00764550500060e-01
7.70572459236676e-01
1.14310899805504e-01
6.87957256870391e-01
9.24083458304114e-01
1.00597806454690e-01
8.66055027138959e-01
3.79491053297612e-01
2.24529143687283e-01
8.66792349784406e-01
2.22476684426558e-01
9.46334745408243e-01
3.36679376649913e-01
8.51965875292488e-01
3.77252425139067e-01
2.48388529971054e-01
9.67031046456434e-01
2.62853606620158e-02
8.94956837216335e-01
2.62834103872668e-01
2.35213602924787e-01
6.74525938147351e-01
2.59752162453482e-01
2.75836863762413e-02
8.36652655458724e-01
9.87539116904985e-01
8.14037750895134e-01
7.95263948845780e-01
2.08483552520686e-01
8.45336443796087e-01
5.15003435993643e-01
6.03110798261897e-01
7.68838541001504e-01
5.92900203482046e-01
7.71067916412994e-01
1.62675119050673e-01
3.94113562588204e-02
2.87657756851529e-01
8.79003452696922e-01
2.07328491415291e-02
1.07630463748907e-01
7.20746210956513e-01
9.43506611604581e-01
5.44821466990817e-01
3.05665883736108e-01
1.94210012723784e-01
7.69617418578411e-01
1.09284637668474e-01
2.88179018560246e-01
3.25703267303261e-01
1.48457679303781e-01
2.52295403894578e-01
4.24475329978732e-01
4.32031144777911e-01
7.23145416122881e-02
6.22889223847123e-01
9.26426103895920e-01
9.50542115628366e-01
7.83428355640792e-02
8.17253787012240e-03
9.53550583054758e-01
9.15620869640469e-01
1.91507293422075e-01
4.61453004754370e-01
5.85808340611151e-02
9.04706978439612e-02
8.06758598140925e-01
3.31443797108908e-01
4.77439401080434e-01
9.55723083262852e-01
9.29540282445935e-01
3.63867275957969e-01
2.24816029730216e-01
7.85692837246265e-01
6.62168133580361e-01
6.74543965494297e-01
3.39882907143545e-01
5.75757328756291e-01
6.31399856989619e-01
7.21691991639565e-01
4.82946448534279e-01
2.54548904506464e-01
8.31364547099256e-01
8.56722538382370e-01
5.30070499566440e-01
2.88322772980433e-01
9.42122964964997e-01
3.25405506690956e-01
9.35232843316286e-01
7.22100350658849e-01
2.62683715616413e-01
9.28700425562498e-02
4.60003414304638e-01
5.85093471907661e-01
7.36821309155952e-01
9.13693765027268e-01
2.72305676457258e-01
4.97499043124310e-01
6.98513198423533e-01
1.67436848305171e-01
2.04228551311333e-01
1.96171848588542e-01
9.01443974294043e-01
1.50099211302115e-01
5.68241161323695e-01
1.83293437249274e-01
8.47366419846389e-01
6.31051217111407e-01
1.72155972258419e-01
6.33048246189712e-01
7.50389139470580e-01
6.34606687779673e-01
5.54112297291852e-01
2.80272297016285e-01
1.76146814311350e-01
6.58409902524763e-01
5.73328732495144e-02
8.82958996821204e-01
7.13851190964274e-01
1.02891625553847e-01
8.20404390193902e-01
9.41879476157077e-01
3.08004387108750e-01
5.72358801670283e-01
5.26170856684080e-01
5.30826715107299e-01
5.99079525177942e-01
7.88377481293299e-01
6.97559211085487e-01
2.03105919628898e-01
9.47698600791062e-01
3.38557632315992e-01
1.53136165659110e-01
1.70349616835522e-01
2.55484393316961e-01
8.27770052643262e-03
7.50983781512271e-01
5.46627778664830e-01
4.14160002670301e-01
3.60515991680163e-01
4.39383071317313e-01
5.51579357823650e-01
4.70351987553393e-01
7.77181322068536e-01
8.52993257397963e-01
8.01545407208980e-02
6.36114479834964e-02
8.78498875038180e-01
2.16191163946937e-01
6.05413574422709e-01
8.97506177336591e-02
8.24344147226064e-01
4.48504176472144e-01
5.40190370355900e-01
6.28810954046217e-01
4.49406004122502e-01
8.48268059002637e-01
5.45231937885377e-01
4.03942666465000e-01
3.27543310082801e-01
3.56743356674798e-01
2.89370681537058e-01
9.52535140518334e-02
7.00844257668376e-01
1.97998279414712e-01
1.01739516169758e-02
1.43906252721036e-01
1.85154626754151e-01
2.12223420399132e-01
5.99874400154239e-02
7.90864092640789e-01
2.86905511793500e-03
3.44062656728623e-01
8.66255831011976e-01
8.60470748327428e-01
2.67142147722407e-01
9.81670639444928e-01
1.34538338303370e-01
3.22573105250732e-02
9.15452631868658e-01
6.68282378348577e-01
1.67619650153870e-01
1.40483822936333e-01
6.11716264758691e-01
1.07150791441986e-01
4.00486840710364e-01
7.96977772046556e-01
4.31211655795527e-01
9.88086674795102e-01
8.15769217963518e-01
3.78023383778227e-01
6.01381472425874e-01
3.06821222496476e-01
1.17078081704594e-01
9.64308887711283e-01
2.86584159495161e-01
3.19337918158567e-01
4.59978684720692e-01
4.78249043620007e-01
2.67681955420203e-01
2.78488732901170e-01
6.52403202814893e-01
7.74468724411761e-02
1.13576029741771e-01
8.52093210263824e-01
6.95242364433718e-01
9.75232122048075e-03
7.54225295672891e-01
8.29895256532220e-03
3.83690565998709e-01
9.37716533372654e-01
9.38346944885300e-01
8.53137924637991e-01
6.74397810190984e-01
5.37289855408426e-02
3.49570303453289e-01
6.20009529259849e-01
5.28984938064084e-01
1.04364549484852e-01
7.03024512273234e-01
1.06405140095062e-01
4.86324373384754e-01
7.81661781757188e-01
3.69119626120650e-01
6.30445173327936e-01
7.82892484396018e-01
9.70931990273420e-01
4.04152996495461e-01
6.12443350344721e-01
9.75696491620816e-01
2.52812509270820e-01
6.69259852413941e-01
1.15174086782314e-01
4.07085119838103e-01
7.43666906139608e-01
9.96475272981306e-01
8.52675788998745e-01
7.59151055496449e-02
8.99505669621615e-01
7.20958112412198e-02
7.69151242536681e-01
4.71292648507179e-02
2.81030263346108e-01
6.61407369811697e-01
2.60920167525389e-01
9.03818261259825e-01
6.80345687635312e-01
7.50818048671741e-02
5.96218742905835e-01
1.63196934445644e-01
1.93671215249423e-01
4.10179167143479e-01
5.29368341382581e-01
2.44059954505572e-01
4.01583290143671e-01
9.35217393288656e-01
9.28070817409162e-01
5.42797519604756e-01
4.81835441587377e-01
8.77828401485791e-01
2.81113968162298e-01
9.04640980410312e-01
2.68829892871014e-01
2.06082113672112e-01
3.77316803843398e-01
5.95189877721168e-02
7.95042611728888e-01
8.93959068552711e-01
7.67926256365717e-01
9.47055031718201e-01
1.33905184192607e-01
4.13560143353578e-01
6.74547270885262e-01
7.71803435788297e-01
5.00912058843710e-01
6.71285938594546e-01
6.43346822547939e-01
3.33325612172989e-01
1.76851118964887e-01
1.55580091139397e-01
6.09175656646157e-01
7.73717356475244e-02
8.91922659639175e-01
9.01094699941485e-01
8.72285127350873e-01
7.51938434013246e-01
1.59773473734811e-01
5.86888669363506e-01
2.68301802903194e-01
9.86317270972652e-01
3.42325494611955e-01
4.41803427835266e-01
7.95317799013019e-01
3.30976113522041e-01
7.02862015207626e-01
2.25171221962792e-01
6.14824580806345e-01
8.74649654975165e-01
4.56795266056701e-01
6.52168321063865e-01
8.73054006725474e-01
9.50414025289270e-01
8.12327270545757e-01
1.27601199430505e-01
4.07699219578474e-01
6.82625840295697e-01
2.87669327915716e-01
7.40544656793162e-01
5.63489690907905e-01
9.48474135727255e-01
8.87189235938326e-02
2.03990863007005e-01
1.33362831869772e-01
4.29208131056454e-02
9.22001330172123e-01
4.38399138113846e-01
6.70828659212996e-01
9.26986524524251e-01
7.36633153330560e-01
5.25085825221031e-01
5.43688339469931e-01
5.25423465906818e-01
8.20744471423746e-01
5.78479125873977e-01
7.02973280689792e-01
7.90597468833722e-01
4.60324693952781e-01
7.27347947856719e-01
1.27369292244136e-01
9.42089433918147e-02
9.11132734299703e-01
5.41406630277699e-01
6.95065901929253e-01
6.61421041940004e-01
7.94502819899457e-01
8.98889526551216e-01
8.50518557235561e-02
1.02621658703370e-01
6.96698583503807e-01
6.97549610597476e-01
7.64458752824867e-01
7.80857113798766e-01
9.99982549918469e-01
3.95555157898278e-01
3.65730364273521e-01
7.66497300016209e-01
4.50049128182937e-01
6.59069250556695e-01
7.12334318079128e-01
2.38857300056110e-01
3.49178426299942e-01
6.56021600871853e-01
2.62590939585101e-01
4.96537976340977e-01
7.95834870851116e-01
6.20467287927120e-01
6.75676963151939e-01
1.52675664075520e-01
4.49826217337229e-01
4.81106833592044e-02
4.81563379259466e-01
9.50743268961019e-01
9.05671731736305e-01
9.02688961754827e-01
3.47792855716838e-01
3.07089066061029e-01
4.42048680038368e-01
2.44083948403993e-01
6.57245301899338e-01
2.06330051796205e-01
2.04788854991096e-01
1.93566018328402e-01
1.19723905167007e-01
8.48841601679978e-01
1.72438033542435e-01
8.42201532697150e-01
3.99901487289299e-01
8.63995404005981e-01
7.61188264351391e-01
2.48676726698367e-01
3.49504354434343e-02
5.21361789393336e-01
2.09981542614983e-01
5.71225148303391e-01
5.36609074496098e-01
1.09824302220053e-01
7.29323243234132e-02
8.51337358715105e-01
5.97654196744504e-01
4.74298017699731e-01
5.21843686455589e-01
6.25246068734810e-01
8.37949940098869e-02
4.58426226327290e-01
1.38095078474539e-01
5.24145483571864e-01
7.00862340336876e-01
5.96499434079709e-01
8.57934713241864e-01
3.58404820536262e-01
5.30679074191289e-01
2.33333843753777e-01
5.39535549813868e-01
5.56076961235673e-01
2.38254782224864e-02
1.75177761303241e-01
7.75204601256007e-01
1.51926843115548e-01
7.26257326425222e-01
1.47746071044042e-01
8.71307307683573e-01
6.11911936784079e-01
5.66517377819756e-01
6.11885416818074e-01
8.83418319835806e-01
4.41644041454953e-01
4.58033967494350e-01
4.81288297450056e-01
8.09731165437282e-01
3.77311390769326e-01
6.03615301143768e-01
9.84042973672915e-01
8.56171270918790e-01
1.23871967171299e-01
7.55764526039906e-01
2.24753920957137e-01
4.24887176277859e-01
6.59304611066643e-01
4.47408356517543e-01
7.23537671532781e-01
2.91587960143508e-01
1.14001559015554e-01
7.43421195728602e-01
9.54055546321217e-01
3.36555181440500e-01
4.85104356729538e-01
4.30029500801377e-01
4.81152934442952e-01
8.20120868019596e-01
1.12077345769403e-01
3.08534790812097e-01
9.33309405154038e-01
5.34117401675923e-01
4.42508816453218e-01
1.46695380614850e-01
2.14117736000305e-01
9.96634431179131e-01
7.03525671323535e-01
7.51765748411964e-01
8.55852998109577e-01
7.89935466074472e-01
7.55935499983306e-01
6.19660688681026e-01
5.04996941789034e-01
4.90688282764094e-01
9.71102276498957e-01
9.07987862375537e-01
2.72812237582197e-01
2.19048407403413e-01
3.33875922954203e-01
1.04819713367784e-01
6.84710112069378e-01
8.92794518037508e-01
9.83047580083578e-02
4.84662790706816e-01
1.99590366288656e-01
8.06867003282762e-01
4.68110681757234e-01
3.01956944969148e-01
4.19053817835024e-06
3.65379059732850e-01
1.71144508924941e-01
4.01419607728950e-02
7.89027413512848e-01
7.15654663919597e-01
3.45451881413117e-01
7.36448013796093e-01
2.31692451568279e-01
5.77925851185354e-02
5.13750516976140e-01
2.56494399005815e-01
1.86008920621392e-01
8.40666353060004e-01
5.73994865983262e-01
2.93183649051521e-02
6.41220505085556e-02
7.02121308802461e-01
2.81509885981623e-01
9.37413360210132e-01
1.81666555160923e-01
3.11151024283572e-01
1.62884538942219e-01
7.24954637113312e-01
6.97760081277862e-01
6.03500828247280e-02
1.30948787358062e-01
7.97488685915781e-01
9.37717601974695e-01
4.03439773580579e-01
1.48378629838225e-01
1.60966886602725e-01
3.89996001167709e-01
4.05459372091344e-01
1.41100860969277e-01
1.28280501472534e-01
6.81381108713105e-01
3.84882202577589e-02
6.75329159877413e-01
2.50224554728776e-01
1.17629753547754e-01
9.12938256136329e-01
1.66374021013529e-01
5.65626647753056e-01
3.57685410485207e-01
2.93511820727064e-02
9.32557721301030e-01
5.05350988110520e-01
4.19923244624896e-01
1.59200146854818e-01
4.12987717352696e-01
9.64266799713626e-01
3.92390331426020e-02
1.67560350229545e-01
9.85241426783908e-01
1.13860649844484e-01
2.48417677314333e-01
1.48762617096297e-01
3.02224492334951e-01
6.09125163286069e-01
8.53429001128534e-01
7.97512451401851e-01
8.35149262470965e-01
3.85894591807143e-01
8.27679887364618e-01
1.18192624262593e-01
8.73415290643457e-01
9.73614417823353e-01
9.03236202143156e-01
6.72266543646238e-01
4.46094239798356e-01
6.86318183903145e-03
6.57002229128411e-01
5.50109327269953e-01
2.33425884840584e-01
2.26559395583005e-02
6.93271204034889e-01
7.24814289275312e-01
4.87143299222541e-02
8.24086246669083e-01
7.16954014641266e-01
3.01879066919996e-01
6.06059261791006e-01
7.31521878046530e-01
2.36476468348791e-02
8.77543952123881e-01
7.64442280862558e-01
9.51240527021316e-01
6.17531768506293e-01
2.09298441688053e-01
1.02078300026543e-01
3.38925807296745e-01
3.10496205166257e-01
5.49524712809546e-01
1.88581173007759e-01
5.07804612674188e-02
9.03997457058241e-01
3.61168885897213e-01
1.24106765003043e-01
8.78931293458329e-01
6.92287210726312e-01
3.71435526793613e-01
8.04503166719296e-01
2.14513952202691e-01
9.85389954800591e-02
6.06387014756639e-01
2.34029384730149e-01
5.42977556945903e-01
4.35068120181830e-01
5.03033730254598e-03
7.30052724439032e-01
5.74609820445086e-01
8.46537514551847e-01
6.64719542009531e-01
9.58443947165714e-01
7.01252943541465e-01
7.14379943282225e-01
6.55526335144325e-01
3.16304899731852e-01
6.82948089278159e-01
9.63948696945312e-01
6.56147123406939e-01
1.93224525750282e-01
2.43221280383410e-02
1.74737021860638e-01
9.94401143025953e-01
6.45858523472703e-01
6.43151801906417e-01
8.72536441054318e-02
7.79528140597749e-01
3.80869472404644e-01
4.04527251406456e-01
2.03433377189792e-01
2.16451737388053e-01
2.44264079508608e-01
5.17740987456082e-01
8.75063732669752e-01
4.44775253166560e-01
3.64157057228821e-01
8.30670295831723e-01
1.85843060492078e-01
1.91160595659230e-01
7.17137889443622e-01
2.13604970643540e-01
5.12773821887987e-01
6.33665851905767e-01
3.55989144254435e-01
1.62018044036330e-01
1.84031701846232e-02
9.24528794758306e-03
5.71780539818061e-01
8.06345231669026e-01
9.85793296155744e-01
6.76221374110458e-01
7.45990144433345e-01
7.63888243559979e-01
9.22074412483642e-01
9.54607774342128e-01
9.48256606568694e-01
9.96407123856263e-01
1.94528459572284e-01
4.00267102188355e-01
8.17987577138515e-01
4.25665371249791e-01
6.33857889317995e-01
4.16062720099813e-01
4.33648423088574e-01
4.80676883930381e-01
6.89228246513510e-02
7.25548744880216e-01
3.43577790185789e-01
9.11203646885706e-01
4.76099221993110e-01
3.56036258601831e-02
6.77894430496973e-01
8.29867983367163e-01
7.34394979392521e-01
4.75289571441992e-01
1.49750133250203e-01
8.65569555947546e-01
2.58560849889282e-01
2.21054286331876e-01
3.16439795697656e-01
7.13187367950975e-01
4.87841507978407e-01
5.62121547207167e-01
7.58961382319448e-01
7.89910347096996e-01
7.72351086719335e-01
6.22910254519526e-01
9.35794367311452e-01
5.30666664334141e-01
3.51085172537878e-01
5.04777690491633e-01
1.33027277640176e-02
9.51454210274549e-02
9.13555237047874e-01
4.26736231487369e-01
9.77436255380960e-01
5.66637832179228e-01
4.97943842541070e-01
1.39261104989802e-01
7.85055282141397e-01
1.56078062124216e-01
9.00886507336539e-01
3.27575607147522e-01
3.57732426054027e-01
4.06112272622096e-01
1.04912998115524e-01
7.03309687551353e-01
6.09627303232182e-01
8.12024176363627e-01
8.79631737888700e-01
4.86270662396157e-01
5.34684983527943e-01
5.57108583848842e-01
3.20216408752261e-01
7.99258149133420e-01
4.39100918284013e-01
4.46576827649084e-01
8.82495976429673e-01
3.43710673793138e-01
1.89812961719511e-01
4.70601774722058e-01
9.77821567389116e-01
9.25970297882467e-01
3.22989068876801e-01
1.72841973777659e-01
6.87990878136800e-01
4.25369330825647e-01
3.98419419956681e-01
9.07056603790748e-01
4.61143875783499e-01
9.98779522789475e-01
5.38053441766146e-01
9.28689110549423e-01
4.75696424265948e-01
7.20994971953057e-01
4.32013729944745e-01
4.93013446617674e-01
6.30917119750949e-01
3.39166131242680e-01
2.86247148902227e-02
5.90287515896036e-01
6.52280911524225e-01
1.46985942856231e-01
1.38608407338342e-01
2.92988789041141e-01
6.07821585630014e-01
5.14013072931983e-01
3.06441614597957e-01
2.18572616164220e-01
4.79047239796888e-02
5.97295940227478e-01
4.38218413835522e-01
8.49125423811212e-01
7.43346621545958e-01
2.31881045662324e-01
5.57477229873753e-01
9.34458064113609e-01
9.01573972950237e-01
2.42661133242292e-01
1.03774900447846e-01
1.42141290599330e-01
6.39234287882847e-01
9.55320044966688e-02
3.09862297842550e-01
8.45953869259791e-01
8.07814621391428e-01
4.33323883702049e-01
3.62626761968921e-01
2.71091869454598e-02
9.51012840196840e-01
2.48858116369492e-01
6.30781881736002e-01
8.67544364902442e-01
5.98352900157120e-01
7.48476436369033e-01
7.38296243844934e-01
8.09194609864655e-01
4.35737093948892e-01
1.45537746896082e-01
9.26548747937898e-01
4.63748766382867e-01
8.54906742278468e-01
4.06729511516449e-01
1.80076197858489e-01
3.12098300234601e-01
7.63169058448997e-01
4.07546133604139e-01
1.70385791024206e-01
4.53743239836788e-01
5.67397611783695e-01
9.68479921076456e-01
8.45841015308105e-01
2.98909664163893e-01
7.23659671965439e-01
2.02113883011038e-01
5.06890145643503e-01
5.53514254370038e-01
8.58329800017788e-01
6.51634653088392e-02
4.88926298416392e-01
2.53804099041587e-01
8.56957833510174e-01
3.01536590911270e-01
6.79111592326508e-01
2.00429139832841e-01
8.53434552690969e-01
3.27310051944816e-01
6.56468031257008e-01
4.05774763819460e-01
7.84391199428308e-01
9.76151461907895e-01
4.27149916984516e-01
9.85131608172034e-02
5.94300468233142e-01
3.00264751389395e-01
6.56175986693600e-01
7.73066335488627e-02
7.93273374794820e-01
5.19499394351136e-01
5.34503951868460e-02
2.97147016232803e-01
5.39332884023842e-01
4.82116460439297e-01
2.98329255019650e-01
4.29893162582356e-01
5.25062208420686e-01
1.33415403140804e-01
4.91844991078843e-01
9.51199034350148e-04
1.58680106110760e-01
5.43821588524141e-01
2.65285983191891e-01
2.66751493363952e-01
3.94513132760787e-01
5.14574066078095e-01
4.45779358501067e-01
7.87608990992406e-01
7.20919311767501e-01
2.55035921148599e-01
4.97756591012671e-01
1.23236360308179e-02
3.52374643609421e-01
1.03524951442726e-01
1.51522353767421e-01
6.94847059727620e-01
8.39553404490542e-01
2.90875554703592e-02
3.93386427392536e-01
3.55180152057394e-01
6.77829415906313e-01
1.20379226388423e-02
4.72563946103951e-01
3.67179194003359e-01
4.52726658136288e-01
5.37014354814611e-01
7.94789918387265e-01
4.45949015482046e-01
1.09054218687029e-02
2.94157692172927e-01
5.40005586506469e-01
4.93678496535200e-01
1.81894158649926e-02
9.57768631607803e-02
7.38713819798940e-02
9.76254989556663e-01
4.47307547582153e-01
9.15593417986398e-01
4.61101000851987e-01
9.44013462759346e-01
5.26616402784254e-01
6.06837748594610e-01
8.93564520821081e-01
6.18642301070314e-01
9.41757149851759e-01
5.18628937546232e-01
7.11175887892317e-01
8.79090301563420e-02
6.92217037488900e-01
7.67388485552266e-01
4.96569667004731e-02
5.28813405764779e-01
7.77301470792214e-02
5.17541283751091e-01
9.32480703139209e-01
4.49513939156304e-02
7.97716210520130e-01
7.22236146832497e-01
2.12407616363673e-01
1.37354607117314e-01
5.45873703307987e-01
9.60251177569537e-01
7.94084456375420e-01
2.14965852029703e-01
5.94805309012459e-02
9.90665267430671e-01
4.91755847958438e-01
3.98061298850292e-01
1.62762907525360e-01
9.38463123352646e-01
8.55496962676955e-01
5.41943149169214e-01
1.04386439785481e-01
5.73731930389709e-01
6.71728018738669e-01
2.38703722233973e-01
8.60457262745487e-01
4.84103119132453e-01
8.89205204761121e-01
4.67758337573559e-01
1.56627127915417e-01
6.32725728768902e-01
6.45535632445651e-01
9.48897662858782e-01
7.90875743382021e-01
4.95253908851329e-01
6.43701861745807e-01
4.74228645131816e-01
8.63036293697517e-01
2.53901548613071e-01
2.12590889256957e-01
5.19985997351107e-01
5.57672409132451e-01
8.65906124040243e-01
6.87651939963719e-02
5.59867531450108e-01
9.09035932598828e-01
5.81123884862900e-03
3.78046103243929e-01
9.84311891029896e-01
4.16755248290699e-01
1.25889756918744e-02
7.42247023679047e-01
7.27517456745620e-01
9.38674646393020e-02
4.06371212076911e-01
8.28943182401004e-01
8.44950857122073e-03
3.94826159297727e-01
6.94607003621120e-01
8.05109441717386e-01
8.23917579054801e-01
6.74127210646684e-01
9.27797093001986e-01
8.87479151614335e-01
7.55923085937467e-01
8.49416732824974e-01
9.96983692401773e-01
9.40448272650075e-01
4.29068616385494e-01
6.15502221089477e-01
6.46266875322467e-01
9.16960076005228e-01
5.09703744748008e-01
8.02861630546272e-01
6.87583613740467e-01
1.69952616824981e-01
5.23854879748339e-01
3.03552543091386e-01
7.75331441982810e-01
2.92385674913893e-01
2.32295663129150e-01
3.79143783716603e-01
8.42756596654190e-01
6.48637153684664e-02
4.72569589765785e-01
9.26168898374219e-01
1.24145794246582e-02
9.52347041743750e-01
1.18029205392250e-01
7.71954160529785e-01
7.88153780551564e-01
5.73016324496945e-01
4.96399456517258e-01
4.50629415829447e-01
9.24747663774149e-01
9.99819385185272e-01
3.64422946508973e-01
6.58192838724869e-01
6.56958949651913e-01
7.21650373617768e-01
2.81429157654696e-02
1.44297591238245e-01
8.71977994169204e-01
2.60638365861708e-01
8.53049970414870e-02
3.36928514133492e-01
6.67555759016467e-01
8.00071954645563e-01
1.17114006691784e-01
8.16841799721802e-01
1.96607554537085e-01
6.32561656281098e-01
4.97241999919920e-01
3.23955334665667e-01
7.75843359885344e-01
4.34315909260557e-01
3.84128385144941e-01
2.67018444777395e-02
3.60155872974764e-01
7.22870948906530e-01
1.27059392187370e-01
5.35003968111245e-01
5.49692856343843e-01
8.84062942916309e-01
7.61413816129206e-01
1.43601671393456e-01
5.16238884229801e-01
3.25835044845807e-01
6.79925091322486e-01
3.35236874259464e-01
8.23451725506573e-01
9.46365183839882e-01
2.47842704740141e-01
5.50423613834846e-01
3.73050984106478e-01
6.93023912451662e-01
5.83078763265954e-01
5.42550093275371e-01
4.19681170027273e-01
2.06712151181299e-01
7.23508197020843e-01
2.07754810987345e-01
7.48206569614723e-01
8.73010455010198e-01
4.73393802732110e-01
4.76740793305492e-01
3.62895005194368e-01
9.75556785817169e-01
9.18047637810832e-01
2.88845953587022e-01
8.71262387404205e-01
6.95638288710119e-02
2.31933026084052e-01
4.15733920509600e-02
9.21412953923723e-01
5.98757780946191e-02
2.87994986112208e-02
2.08605241831328e-02
8.02707771817439e-01
4.46447065302031e-01
4.78303176127367e-01
3.81421262165324e-01
1.99360719878594e-01
6.71727863380092e-01
4.29776176084609e-01
9.72502547626856e-01
9.02588941978067e-02
3.89895515091343e-01
2.64233742320976e-01
9.86040801721940e-01
7.55056686392407e-01
6.97531695157243e-01
8.86101265623286e-01
4.14487396459374e-01
7.37852942176564e-01
4.31343797723654e-01
8.66378363536928e-01
2.98785379560766e-01
6.91212731494269e-01
4.13160146324165e-01
4.15002870164733e-01
5.76933586820589e-02
4.85488906553530e-01
7.88680837277265e-01
7.16682519033106e-01
1.16401522355834e-01
6.34432731965631e-01
8.75864152844694e-01
7.23178678074524e-01
6.31260165296764e-01
6.23219243879672e-01
1.08741707613647e-01
2.56711897766747e-01
5.29551186940399e-01
6.46294363154607e-01
9.00826657425925e-01
6.49950426449876e-01
4.12562156386895e-01
1.74978885583554e-01
4.59727181205771e-01
9.47706468114753e-01
6.78053228177857e-01
5.67514161466657e-01
1.48720060569621e-01
3.69867061654957e-01
5.45015050288874e-01
2.97101430710623e-02
2.73578559971125e-01
9.38447270356380e-01
5.20831351600496e-01
8.19374489699734e-01
8.53570042479928e-01
5.25235429783498e-01
7.51277461226755e-01
9.78172501303122e-01
1.97548759764188e-01
8.17600288318240e-01
7.87321838336386e-01
4.99597177750541e-01
6.51182607704239e-02
1.06507252741857e-01
5.90885644537797e-03
3.21343726246983e-01
6.98400485258729e-01
6.57405374766551e-02
5.28945863183900e-01
5.48521808665557e-01
9.84396916976305e-01
5.60396804706256e-01
6.01454274004134e-01
4.14489995659704e-01
8.77713991166427e-02
8.44275118673998e-01
4.93481466766810e-01
8.54782955695998e-01
3.54078150026922e-01
6.31683297216900e-01
9.86925838235015e-01
1.93916019552979e-01
4.40476873409230e-01
5.42750254959964e-01
8.57691621496488e-01
3.72327831802894e-01
2.12150115139281e-01
7.69005612574854e-01
1.67959711032169e-01
3.88120492832319e-01
3.82798111381171e-01
4.12159713111107e-01
8.50953346188404e-01
3.98642464489903e-01
4.36028758338223e-01
6.47494902243329e-01
7.14805602362884e-01
5.47678832090844e-01
9.48630842095817e-01
7.82120047147247e-02
1.23785167007798e-01
8.11711981335175e-02
9.29808840035806e-01
6.96566317666160e-01
9.63258835036876e-01
1.54714731779437e-01
2.74134613319331e-01
1.91436773377514e-01
1.67659435934824e-01
8.79357582330278e-01
1.26764813337679e-01
2.68279960708305e-01
3.91819172948713e-01
9.26756047128915e-01
8.88636304572695e-01
3.90434397720293e-01
9.27161087729970e-01
9.87469110977008e-02
3.72609866760997e-01
7.56288914488385e-01
5.46103165194685e-01
8.36077573268852e-01
9.60493158406341e-01
1.58719685240541e-01
6.28002244092781e-01
2.85917703925904e-01
4.58555129526678e-01
4.88416300870456e-01
5.29096732648578e-01
1.88936769219505e-03
1.04768702805499e-01
9.88506380830836e-01
6.69956873372979e-02
2.30870727039367e-01
1.08032463152794e-01
1.27642449228481e-01
4.76759952239120e-01
9.09318434506922e-01
9.89057873359559e-01
9.68506872535390e-01
8.58809191401571e-01
2.92921960327272e-01
3.96292367555270e-01
3.15916750419729e-01
9.42041059984550e-01
1.90823569863515e-01
4.13346230034310e-01
6.50887667241877e-01
2.95953641458101e-01
8.56772016343331e-01
9.42421280546411e-02
7.08803309613790e-01
5.81157767844921e-01
6.77072073602121e-01
7.48926043903129e-01
9.77259500843591e-01
8.28355280324455e-01
6.33692701555699e-01
2.69719736382193e-01
3.34026143123089e-01
7.10101151988182e-01
6.62121440679521e-01
9.32460440093979e-01
7.16828852234745e-01
8.38011647861023e-01
8.14609787167375e-01
9.94517079768340e-01
6.51038066870846e-01
5.81703296287417e-01
3.86778502143126e-01
8.92194783892334e-01
3.96246931162717e-02
6.66572868444842e-01
2.72293214104981e-01
8.96432579530308e-01
9.83382185475695e-01
1.88944570457105e-01
7.18543922393894e-01
1.96530116046746e-01
4.15945443662382e-01
7.08328906481788e-01
3.89787698196729e-01
7.18503260247961e-01
4.52495966257886e-01
5.46507223315994e-01
3.37161200070499e-01
5.93995028261273e-01
9.47164863808009e-01
9.63093803277870e-01
2.72127902108222e-01
5.12423543622319e-01
5.58134472826442e-01
7.50645825413173e-01
3.20464542324294e-01
5.76837915345745e-01
9.73127350885707e-01
7.12335962799913e-01
2.93534677817979e-01
7.31267135274615e-01
9.97844960829200e-01
8.67772640727797e-01
6.07317135638487e-01
6.24570224984562e-01
7.99272511103120e-01
2.96216352204586e-01
2.08759306369009e-01
4.87723323847902e-01
3.92307512384082e-01
9.25815822578601e-01
2.91507682456449e-01
7.55694989988057e-02
7.88880527068927e-01
8.56463052273191e-01
4.49642325518006e-01
1.45472826951645e-02
7.22595873602824e-01
4.73895884099821e-01
8.07285655799244e-01
2.17840677112540e-02
2.68498613313555e-01
6.62597511338337e-01
8.03600722863096e-01
7.15506575311953e-01
8.56883583806225e-01
7.62825982384613e-01
2.63605100514077e-02
6.30595628250193e-01
1.67057116938030e-01
7.15682442992627e-01
2.67686144522800e-01
4.73203580859650e-01
6.05395432784898e-01
5.22100079303200e-01
6.97811338739598e-01
1.16396867713779e-01
7.61972201313972e-01
6.05398796306127e-01
2.81633942563478e-01
8.34560169288704e-01
4.38769538750790e-02
9.62340890256539e-01
5.36381008116752e-01
5.69517866805370e-01
9.66743491773813e-01
2.52055762820971e-01
3.83116404481169e-01
6.68928923815991e-01
2.64951002498635e-01
